&CONTROL
   calculation      = 'relax'
   restart_mode     = 'from_scratch'
   tstress          = .false.
   tprnfor          = .true.
   outdir           = './'
   etot_conv_thr    = 1e-05
   forc_conv_thr    = 0.000388
   disk_io          = 'none'
   pseudo_dir       = '/iridisfs/home/ba3g18/Repos/Pseudopotentials/pslibrary.1.0.0/pbe/PSEUDOPOTENTIALS'
/
&SYSTEM
   ibrav            = 0
   nbnd             = 117
   ecutwfc          = 80
   ecutrho          = 800
   occupations      = 'smearing'
   degauss          = 0.01
   smearing         = 'cold'
   input_dft        = 'PBE'
   ntyp             = 1
   nat              = 52
/
&ELECTRONS
   electron_maxstep = 200
   conv_thr         = 1e-06
   mixing_mode      = 'local-TF'
   mixing_beta      = 0.2
   diagonalization  = 'david'
/
&IONS
   ion_dynamics     = 'bfgs'
   upscale          = 1000000.0
   bfgs_ndim        = 1
/
&CELL
   press_conv_thr   = 0.1
   cell_dofree      = 'all'
/
&FCP
/
&RISM
/
ATOMIC_SPECIES
Li 6.94 Li.pbe-sl-kjpaw_psl.1.0.0.UPF

K_POINTS automatic
10 6 1  0 0 0

CELL_PARAMETERS angstrom
6.87031246000000 0.00000000000000 0.00000000000000
0.00000000000000 12.38563441000000 0.00000000000000
0.00000000000000 0.00000000000000 37.15689637000000

ATOMIC_POSITIONS angstrom
Li -0.0000000600 7.9143398300 23.6081823600  
Li -0.0000000600 10.4171759700 21.7875182700  
Li -0.0000000600 2.8921765400 22.4362112300  
Li -0.0000000600 5.6687699700 20.7277973900  
Li -0.0000000600 8.5569597900 18.8399901800  
Li -0.0000000600 11.4415803600 17.0626029200  
Li -0.0000000600 0.9154717500 19.7664489900  
Li -0.0000000600 3.8606310100 17.7321203000  
Li -0.0000000600 6.7331948200 15.9115182500  
Li -0.0000000600 9.4500832100 14.0430336200  
Li -0.0000000600 1.9368217500 15.0215764800  
Li -0.0000000600 4.2403246600 12.9920764800  
Li -0.0000000600 0.7798865200 24.5336560200  
Li 1.7175779400 8.0342901900 21.2453750500  
Li 1.7175783500 10.9068520100 19.4247747300  
Li 1.7175781600 3.3259025300 20.0942921000  
Li 1.7175779300 6.2105228600 18.3169017500  
Li 1.7175782700 9.0987132600 16.4290949500  
Li 1.7175779600 11.8753093900 14.7206850400  
Li 1.7175777100 1.4663762900 17.3904466000  
Li 1.7175777200 4.3503094100 15.3693774500  
Li 1.7175781400 6.8531452600 13.5487121500  
Li 1.7175774200 10.5271604600 24.1648215700  
Li 1.7175773800 1.6019642800 12.6232415700  
Li 1.7175789100 5.3174042300 23.1138582300  
Li 1.7175778200 0.4450293100 22.1353203900  
Li 3.4351561700 7.9143408900 23.6081824200  
Li 3.4351561700 10.4171756100 21.7875198600  
Li 3.4351561700 2.8921765300 22.4362104100  
Li 3.4351561700 5.6687711000 20.7277970200  
Li 3.4351561700 8.5569594000 18.8399904000  
Li 3.4351561700 11.4415808300 17.0626020100  
Li 3.4351561700 0.9154720900 19.7664486800  
Li 3.4351561700 3.8606305300 17.7321199900  
Li 3.4351561600 6.7331936200 15.9115181600  
Li 3.4351561700 9.4500824600 14.0430346000  
Li 3.4351561700 1.9368220600 15.0215756300  
Li 3.4351561700 4.2403245300 12.9920764900  
Li 3.4351561700 0.7798859300 24.5336555900  
Li 5.1527344000 8.0342901900 21.2453750600  
Li 5.1527339900 10.9068520100 19.4247747300  
Li 5.1527341800 3.3259025300 20.0942921100  
Li 5.1527344000 6.2105228600 18.3169017500  
Li 5.1527340600 9.0987132600 16.4290949500  
Li 5.1527343800 11.8753093800 14.7206850400  
Li 5.1527346300 1.4663762800 17.3904466000  
Li 5.1527346200 4.3503094100 15.3693774500  
Li 5.1527341900 6.8531452600 13.5487121600  
Li 5.1527349100 10.5271604500 24.1648215700  
Li 5.1527349600 1.6019642900 12.6232415700  
Li 5.1527334200 5.3174042300 23.1138582300  
Li 5.1527345200 0.4450293100 22.1353203900  

