&CONTROL
   calculation      = 'vc-relax'
   verbosity        = 'high'
   restart_mode     = 'from_scratch'
   nstep            = 999
   tstress          = .false.
   tprnfor          = .true.
   outdir           = './'
   prefix           = 'pw.dir'
   etot_conv_thr    = 1e-06
   forc_conv_thr    = 1e-06
   disk_io          = 'minimal'
   pseudo_dir       = '/home/ba3g18/Repos/Pseudopotentials/pslibrary.1.0.0/pbe/PSEUDOPOTENTIALS'
/
&SYSTEM
   tot_charge       = 0.0
   ecutwfc          = 80.0
   ecutrho          = 800
   occupations      = 'smearing'
   degauss          = 0.01
   smearing         = 'cold'
   nspin            = 1
   input_dft        = 'pbe'
   ntyp             = 1
   nat              = 54
   ibrav            = 0
/
&ELECTRONS
   electron_maxstep = 999
   scf_must_converge = .true.
   conv_thr         = 1e-14
   mixing_mode      = 'plain'
   mixing_beta      = 0.8
   diagonalization  = 'david'
   startingwfc      = 'random'
/
&IONS
   ion_dynamics     = 'bfgs'
   upscale          = 10000.0
   bfgs_ndim        = 1
/
&CELL
   press_conv_thr   = 0.1
   cell_dofree      = 'all'
/
&FCP
/
&RISM
/
ATOMIC_SPECIES
Li 6.94 Li.pbe-sl-kjpaw_psl.1.0.0.UPF

K_POINTS automatic
10 10 10  0 0 0

CELL_PARAMETERS angstrom
10.30401056200000 0.00000000000000 -0.00000000000000
0.00000000000000 10.30401056200000 0.00000000000000
-0.00000000000000 0.00000000000000 10.30401056200000

ATOMIC_POSITIONS angstrom
Li 0.0000000000 0.0000000000 0.0000000000  
Li 1.7173350529 1.7173350529 1.7173350529  
Li 0.0000000000 0.0000000000 3.4346701741  
Li 1.7173350523 1.7173350523 5.1520052811  
Li 0.0000000000 0.0000000000 6.8693403880  
Li 1.7173350529 1.7173350529 8.5866755092  
Li 0.0000000000 3.4346701741 0.0000000000  
Li 1.7173350523 5.1520052811 1.7173350523  
Li 0.0000000000 3.4346701464 3.4346701464  
Li 1.7173350712 5.1520052811 5.1520052811  
Li 0.0000000000 3.4346701464 6.8693404157  
Li 1.7173350523 5.1520052811 8.5866755098  
Li 0.0000000000 6.8693403880 0.0000000000  
Li 1.7173350529 8.5866755092 1.7173350529  
Li 0.0000000000 6.8693404157 3.4346701464  
Li 1.7173350523 8.5866755098 5.1520052811  
Li 0.0000000000 6.8693404157 6.8693404157  
Li 1.7173350529 8.5866755092 8.5866755092  
Li 3.4346701741 0.0000000000 0.0000000000  
Li 5.1520052811 1.7173350523 1.7173350523  
Li 3.4346701464 0.0000000000 3.4346701464  
Li 5.1520052811 1.7173350712 5.1520052811  
Li 3.4346701464 0.0000000000 6.8693404157  
Li 5.1520052811 1.7173350523 8.5866755098  
Li 3.4346701464 3.4346701464 0.0000000000  
Li 5.1520052811 5.1520052811 1.7173350712  
Li 3.4346701531 3.4346701531 3.4346701531  
Li 5.1520052811 5.1520052811 5.1520052811  
Li 3.4346701531 3.4346701531 6.8693404090  
Li 5.1520052811 5.1520052811 8.5866754909  
Li 3.4346701464 6.8693404157 0.0000000000  
Li 5.1520052811 8.5866755098 1.7173350523  
Li 3.4346701531 6.8693404090 3.4346701531  
Li 5.1520052811 8.5866754909 5.1520052811  
Li 3.4346701531 6.8693404090 6.8693404090  
Li 5.1520052811 8.5866755098 8.5866755098  
Li 6.8693403880 0.0000000000 0.0000000000  
Li 8.5866755092 1.7173350529 1.7173350529  
Li 6.8693404157 0.0000000000 3.4346701464  
Li 8.5866755098 1.7173350523 5.1520052811  
Li 6.8693404157 0.0000000000 6.8693404157  
Li 8.5866755092 1.7173350529 8.5866755092  
Li 6.8693404157 3.4346701464 0.0000000000  
Li 8.5866755098 5.1520052811 1.7173350523  
Li 6.8693404090 3.4346701531 3.4346701531  
Li 8.5866754909 5.1520052811 5.1520052811  
Li 6.8693404090 3.4346701531 6.8693404090  
Li 8.5866755098 5.1520052811 8.5866755098  
Li 6.8693404157 6.8693404157 0.0000000000  
Li 8.5866755092 8.5866755092 1.7173350529  
Li 6.8693404090 6.8693404090 3.4346701531  
Li 8.5866755098 8.5866755098 5.1520052811  
Li 6.8693404090 6.8693404090 6.8693404090  
Li 8.5866755092 8.5866755092 8.5866755092  

