&CONTROL
   calculation      = 'scf'
   verbosity        = 'high'
   restart_mode     = 'from_scratch'
   nstep            = 999
   tstress          = .false.
   tprnfor          = .true.
   outdir           = './Li/'
   prefix           = 'Lithium'
   etot_conv_thr    = 1e-05
   forc_conv_thr    = 0.000388
   disk_io          = 'minimal'
   pseudo_dir       = '/work/e89/e89/ba3g18/Repos/Pseudopotentials/Pslibrary'
/
&SYSTEM
   ibrav            = 12
   nbnd             = 171
   tot_charge       = 0.0
   ecutwfc          = 80.0
   ecutrho          = 800
   occupations      = 'smearing'
   degauss          = 0.01
   smearing         = 'cold'
   nspin            = 1
   input_dft        = 'pbe'
   lgcscf           = .true.
   gcscf_mu         = -2.404
   gcscf_conv_thr   = 0.001
   ntyp             = 1
   nat              = 76
   celldm(1)        = 18.360747
   celldm(2)        = 1.1180342461771913
   celldm(3)        = 5.615419
   celldm(4)        = 0.22360674626453153
/
&ELECTRONS
   electron_maxstep = 999
   scf_must_converge = .true.
   conv_thr         = 1e-14
   mixing_mode      = 'local-TF'
   mixing_beta      = 0.2
   diagonalization  = 'david'
   diago_thr_init   = 1e-12
   diago_david_ndim = 4
   diago_full_acc   = .true.
   startingwfc      = 'random'
/
&IONS
   ion_dynamics     = 'bfgs'
   upscale          = 1000000.0
   bfgs_ndim        = 1
/
&CELL
   press_conv_thr   = 0.1
   cell_dofree      = 'all'
/
&FCP
/
&RISM
/
ATOMIC_SPECIES
Li 6.94 Li.pbe-sl-kjpaw_psl.1.0.0.UPF

K_POINTS automatic
7 6 1  0 0 0

ATOMIC_POSITIONS angstrom
Li 0.0112322516 -0.2765916072 34.4916081092  
Li 2.4176636233 7.2123646503 20.5040720784  
Li 2.4179875822 3.8386482631 21.3828901306  
Li 2.4181294125 0.6858324854 22.1284795114  
Li 4.8470198620 7.8651361320 22.6589206557  
Li 4.8472598142 4.3091448310 23.5289002983  
Li 4.8473707152 1.1028655454 24.2725791322  
Li 2.4194951573 8.4370659850 25.0038321279  
Li 2.4228952863 5.0229799085 25.9434453342  
Li 2.4266561874 1.6017806710 26.8047391840  
Li 4.8590799782 8.9096113890 27.4720786596  
Li 4.8627994537 5.6056214490 28.2127141751  
Li 4.8664111876 2.2452698731 29.1679618089  
Li 2.4391293166 9.4930097495 29.8127015321  
Li 2.4394899713 6.1351075712 30.4219543133  
Li 2.4398418541 2.7977836587 31.3584419185  
Li 4.8691401174 9.9449524703 32.3640807512  
Li 4.8688985334 6.7775871613 33.1871043249  
Li 4.8691846774 3.3755431866 33.6772629028  
Li 2.4179946837 9.5698504768 22.1814361428  
Li 2.4182264651 6.1104359980 23.2065882181  
Li 2.4183912999 2.7609665323 24.1286602163  
Li 4.8477751875 10.0307249314 24.7383993388  
Li 4.8499827438 6.6749325135 25.4089902982  
Li 4.8536779706 3.2921447418 26.3504511321  
Li 4.8568038138 0.0308224637 27.0910555804  
Li 2.4314594816 7.3189574577 27.7586604290  
Li 2.4357505327 3.8754277583 28.6274002459  
Li 2.4386857854 0.4987973560 29.5557156160  
Li 4.8685337929 7.8034649775 30.2784991235  
Li 4.8687954772 4.5970379381 31.0391610959  
Li 4.8691392736 1.0588272997 31.9040914047  
Li 2.4399348901 8.2262888427 32.4133025770  
Li 2.4399506913 5.0557138602 33.1715288442  
Li 2.4403101977 1.7214132426 34.0606215782  
Li 4.8467177991 9.2156693714 20.0565845154  
Li 4.8467271032 5.5290459278 20.8857500687  
Li 4.8472090781 2.1270035296 21.3875620788  
Li 4.8691206160 -0.2766147678 34.4916008827  
Li 7.2756886090 7.2123227674 20.5041272920  
Li 7.2759995331 3.8386959375 21.3829665903  
Li 7.2761002137 0.6858474330 22.1284870198  
Li 9.7049870629 7.8652077437 22.6589027569  
Li 9.7052556590 4.3091465674 23.5289502777  
Li 9.7055448736 1.1027931862 24.2726120878  
Li 7.2773294993 8.4370881786 25.0036895497  
Li 7.2808926873 5.0231452053 25.9433452416  
Li 7.2846406885 1.6018102064 26.8046682375  
Li 9.7170955981 8.9095969802 27.4720702274  
Li 9.7207573066 5.6055393050 28.2127654896  
Li 9.7244647236 2.2453515789 29.1679837548  
Li 7.2972378865 9.4930168006 29.8126505017  
Li 7.2974770575 6.1350413831 30.4219245357  
Li 7.2979850253 2.7977729569 31.3583963345  
Li 9.7271785278 9.9451711810 32.3640119503  
Li 9.7269182412 6.7776879686 33.1871728761  
Li 9.7273263486 3.3753897250 33.6773327686  
Li 7.2759522385 9.5699325015 22.1812671556  
Li 7.2761622720 6.1105011805 23.2066137304  
Li 7.2763808413 2.7609603816 24.1286857333  
Li 9.7057548488 10.0307615653 24.7383528316  
Li 9.7080450994 6.6749910106 25.4090273447  
Li 9.7116990431 3.2921133459 26.3504197067  
Li 9.7149020018 0.0307961977 27.0910903002  
Li 7.2894415715 7.3190150028 27.7586231397  
Li 7.2936260302 3.8753859519 28.6272788660  
Li 7.2966815123 0.4989243473 29.5555651403  
Li 9.7265109022 7.8034224127 30.2785494617  
Li 9.7267526860 4.5971058982 31.0392636006  
Li 9.7271668019 1.0588046394 31.9041192937  
Li 7.2980966751 8.2262261746 32.4132930569  
Li 7.2980897453 5.0555845414 33.1716370196  
Li 7.2982493321 1.7215158008 34.0607285319  
Li 9.7048176378 9.2157766307 20.0566406548  
Li 9.7047779741 5.5289972609 20.8857684355  
Li 9.7053074352 2.1269639957 21.3877350544  

