&CONTROL
   calculation      = 'relax'
   verbosity        = 'high'
   restart_mode     = 'from_scratch'
   nstep            = 999
   tstress          = .false.
   tprnfor          = .true.
   outdir           = './Li/'
   prefix           = 'Lithium'
   etot_conv_thr    = 1e-05
   forc_conv_thr    = 0.000388
   disk_io          = 'minimal'
   pseudo_dir       = '/work/e89/e89/ba3g18/Repos/Pseudopotentials/Pslibrary'
/
&SYSTEM
   ibrav            = 4
   nbnd             = 108
   tot_charge       = 0.0
   ecutwfc          = 80.0
   ecutrho          = 800
   occupations      = 'smearing'
   degauss          = 0.01
   smearing         = 'cold'
   nspin            = 1
   input_dft        = 'pbe'
   lgcscf           = .true.
   gcscf_mu         = -1.654
   gcscf_conv_thr   = 0.001
   ntyp             = 1
   nat              = 48
   celldm(1)        = 18.360747
   celldm(3)        = 5.270332
/
&ELECTRONS
   electron_maxstep = 999
   scf_must_converge = .true.
   conv_thr         = 1e-06
   mixing_mode      = 'local-TF'
   mixing_beta      = 0.2
   diagonalization  = 'david'
   diago_thr_init   = 1e-12
   diago_david_ndim = 4
   diago_full_acc   = .true.
   startingwfc      = 'random'
/
&IONS
   ion_dynamics     = 'bfgs'
   upscale          = 1000000.0
   bfgs_ndim        = 1
/
&CELL
   press_conv_thr   = 0.1
   cell_dofree      = 'all'
/
&FCP
/
&RISM
/
ATOMIC_SPECIES
Li 6.94 Li.pbe-sl-kjpaw_psl.1.0.0.UPF

K_POINTS automatic
7 7 1  0 0 0

ATOMIC_POSITIONS angstrom
Li -0.0000000100 -0.0004588644 25.0172453274  
Li 2.4296211195 1.4026335441 21.2567111477  
Li 4.8580444100 2.8049790144 23.2075752429  
Li 0.0000000100 0.0001438350 22.0044401858  
Li 2.4291395620 1.4024929318 24.1359743445  
Li 4.8580445000 2.8056021663 20.2757348018  
Li 0.0000000000 -0.0008313976 30.9312542721  
Li 2.4289167834 1.4022884075 27.0710592189  
Li 4.8580444100 2.8046460662 29.2026877718  
Li -0.0000000100 -0.0001612999 27.9994750760  
Li 2.4284455174 1.4021594157 29.9502733873  
Li 4.8580444200 2.8052487693 26.1898347259  
Li 2.4295988498 4.2071421790 25.0183277617  
Li 4.8580443900 5.6094004537 21.2581507554  
Li 7.2865966829 7.0121693470 23.2063283155  
Li 2.4290197570 4.2073641275 22.0050901422  
Li 4.8580444100 5.6092831842 24.1364903590  
Li 7.2856409871 7.0123809373 20.2740609914  
Li 2.4304236326 4.2068361871 30.9329160362  
Li 4.8580444000 5.6098838567 27.0705151720  
Li 7.2870789405 7.0118243256 29.2018682744  
Li 2.4294857423 4.2069692017 28.0007193207  
Li 4.8580444000 5.6097896180 29.9487937014  
Li 7.2864803488 7.0120331099 26.1886847747  
Li 4.8580444000 0.0005889201 25.0188134830  
Li 7.2864677005 1.4026335241 21.2567112977  
Li 9.7160888200 2.8047148748 23.2057128490  
Li 4.8580443900 -0.0000047050 22.0053133247  
Li 7.2869492580 1.4024929318 24.1359744245  
Li 9.7160887400 2.8038956456 20.2731328484  
Li 4.8580444000 0.0008170607 30.9338200893  
Li 7.2871720366 1.4022884075 27.0710592689  
Li 9.7160888300 2.8047586794 29.2018160368  
Li 4.8580444000 0.0001345764 28.0013328707  
Li 7.2876433026 1.4021594057 29.9502734273  
Li 9.7160888200 2.8041864362 26.1882860347  
Li 7.2864899603 4.2071421890 25.0183277617  
Li 9.7160888400 5.6099543792 21.2542835555  
Li 12.1455809671 7.0121693570 23.2063283255  
Li 7.2870690530 4.2073641475 22.0050901522  
Li 9.7160888300 5.6098892864 24.1351050456  
Li 12.1465366629 7.0123810473 20.2740610014  
Li 7.2856651774 4.2068361971 30.9329160262  
Li 9.7160888300 5.6093256952 27.0718473294  
Li 12.1450987096 7.0118243256 29.2018682744  
Li 7.2866030777 4.2069692017 28.0007193107  
Li 9.7160888300 5.6092196788 29.9525719592  
Li 12.1456973112 7.0120331199 26.1886847747  

