&CONTROL
   calculation      = 'relax'
   verbosity        = 'high'
   restart_mode     = 'from_scratch'
   nstep            = 999
   tstress          = .false.
   tprnfor          = .true.
   outdir           = './Li/'
   prefix           = 'Lithium'
   etot_conv_thr    = 1e-05
   forc_conv_thr    = 0.000388
   disk_io          = 'minimal'
   pseudo_dir       = '/work/e89/e89/ba3g18/Repos/Pseudopotentials/Pslibrary'
/
&SYSTEM
   ibrav            = 4
   nbnd             = 108
   tot_charge       = 0.0
   ecutwfc          = 80.0
   ecutrho          = 800
   occupations      = 'smearing'
   degauss          = 0.01
   smearing         = 'cold'
   nspin            = 1
   input_dft        = 'pbe'
   lgcscf           = .true.
   gcscf_mu         = -2.404
   gcscf_conv_thr   = 0.001
   ntyp             = 1
   nat              = 48
   celldm(1)        = 18.360747
   celldm(3)        = 5.270332
/
&ELECTRONS
   electron_maxstep = 999
   scf_must_converge = .true.
   conv_thr         = 1e-06
   mixing_mode      = 'local-TF'
   mixing_beta      = 0.2
   diagonalization  = 'david'
   diago_thr_init   = 1e-12
   diago_david_ndim = 4
   diago_full_acc   = .true.
   startingwfc      = 'random'
/
&IONS
   ion_dynamics     = 'bfgs'
   upscale          = 1000000.0
   bfgs_ndim        = 1
/
&CELL
   press_conv_thr   = 0.1
   cell_dofree      = 'all'
/
&FCP
/
&RISM
/
ATOMIC_SPECIES
Li 6.94 Li.pbe-sl-kjpaw_psl.1.0.0.UPF

K_POINTS automatic
7 7 1  0 0 0

ATOMIC_POSITIONS angstrom
Li -0.0000000100 0.0000257901 25.0865827734  
Li 2.4290249780 1.4024513474 21.3123383313  
Li 4.8580444100 2.8048062367 23.0541440153  
Li 0.0000000100 0.0000539289 22.0560110234  
Li 2.4290279286 1.4024250292 24.1578085527  
Li 4.8580445000 2.8048434549 20.0534986211  
Li 0.0000000000 -0.0000775706 31.1537164937  
Li 2.4290367064 1.4023899155 27.0492845556  
Li 4.8580444100 2.8047430723 29.1507843709  
Li -0.0000000100 -0.0000153871 28.1530924573  
Li 2.4290373249 1.4023691371 29.8944428803  
Li 4.8580444200 2.8047694956 26.1204645578  
Li 2.4290127881 4.2071827079 25.0865731418  
Li 4.8580443900 5.6096168729 21.3123300649  
Li 7.2870860522 7.0120179976 23.0541375367  
Li 2.4290102741 4.2072239072 22.0559970764  
Li 4.8580444100 5.6095893924 24.1577872411  
Li 7.2870368212 7.0120432571 20.0535115303  
Li 2.4290247437 4.2071775561 31.1537087308  
Li 4.8580444000 5.6095460661 27.0492638784  
Li 7.2870834480 7.0119468621 29.1507808472  
Li 2.4290159279 4.2071470506 28.1530840170  
Li 4.8580444000 5.6095224783 29.8944072418  
Li 7.2870875810 7.0119786960 26.1204550551  
Li 4.8580444000 0.0000117176 25.0865863270  
Li 7.2870638420 1.4024513274 21.3123384813  
Li 9.7160888200 2.8048280033 23.0541328831  
Li 4.8580443900 0.0000402742 22.0560158108  
Li 7.2870608914 1.4024250292 24.1578086327  
Li 9.7160887400 2.8048087143 20.0534981446  
Li 4.8580444000 -0.0000770608 31.1537209660  
Li 7.2870521136 1.4023899155 27.0492846056  
Li 9.7160888300 2.8047593563 29.1507709061  
Li 4.8580444000 -0.0000216272 28.1530916459  
Li 7.2870514951 1.4023691271 29.8944429203  
Li 9.7160888200 2.8047970018 26.1204439142  
Li 7.2870760220 4.2071827179 25.0865731418  
Li 9.7160888400 5.6096216916 21.3122907802  
Li 12.1450915978 7.0120180076 23.0541375467  
Li 7.2870785359 4.2072239272 22.0559970864  
Li 9.7160888300 5.6095935519 24.1577633651  
Li 12.1451408288 7.0120433671 20.0535115403  
Li 7.2870640663 4.2071775661 31.1537087208  
Li 9.7160888300 5.6095646091 27.0492378236  
Li 12.1450942021 7.0119468621 29.1507808472  
Li 7.2870728921 4.2071470506 28.1530840070  
Li 9.7160888300 5.6095363681 29.8943804323  
Li 12.1450900790 7.0119787060 26.1204550551  

