&CONTROL
   calculation      = 'vc-relax'
   restart_mode     = 'from_scratch'
   tstress          = .true.
   tprnfor          = .true.
   outdir           = './'
   etot_conv_thr    = 1e-10
   forc_conv_thr    = 1e-10
   disk_io          = 'none'
   pseudo_dir       = '/iridisfs/home/ba3g18/Repos/Pseudopotentials/pslibrary.1.0.0/pbe/PSEUDOPOTENTIALS'
/
&SYSTEM
   ibrav            = 0
   ecutwfc          = 80
   ecutrho          = 800
   occupations      = 'smearing'
   degauss          = 0.01
   smearing         = 'cold'
   input_dft        = 'PBE'
   ntyp             = 1
   nat              = 2
/
&ELECTRONS
   electron_maxstep = 200
   conv_thr         = 1e-10
   mixing_mode      = 'plain'
   mixing_beta      = 0.8
   diagonalization  = 'david'
/
&IONS
   ion_dynamics     = 'bfgs'
   upscale          = 1000000.0
   bfgs_ndim        = 1
/
&CELL
   press_conv_thr   = 0.1
   cell_dofree      = 'all'
/
&FCP
/
&RISM
/
ATOMIC_SPECIES
Li 6.94 Li.pbe-sl-kjpaw_psl.1.0.0.UPF

K_POINTS automatic
30 30 30  0 0 0

CELL_PARAMETERS angstrom
3.43515614600000 0.00000000000000 -0.00000000000000
0.00000000000000 3.43515614600000 0.00000000000000
0.00000000000000 0.00000000000000 3.43515614600000

ATOMIC_POSITIONS angstrom
Li 0.0000000000 0.0000000000 0.0000000000  
Li 1.7175780700 1.7175780700 1.7175780700  

