&CONTROL
   calculation      = 'relax'
   verbosity        = 'high'
   restart_mode     = 'from_scratch'
   nstep            = 999
   tstress          = .false.
   tprnfor          = .true.
   outdir           = './Li/'
   prefix           = 'Lithium'
   etot_conv_thr    = 1e-05
   forc_conv_thr    = 0.000388
   disk_io          = 'minimal'
   pseudo_dir       = '/work/e89/e89/ba3g18/Repos/Pseudopotentials/Pslibrary'
/
&SYSTEM
   ibrav            = 12
   nbnd             = 81
   tot_charge       = 0.0
   ecutwfc          = 80.0
   ecutrho          = 800
   occupations      = 'smearing'
   degauss          = 0.01
   smearing         = 'cold'
   nspin            = 1
   input_dft        = 'pbe'
   lgcscf           = .true.
   gcscf_mu         = -3.404
   gcscf_conv_thr   = 0.001
   ntyp             = 1
   nat              = 36
   celldm(1)        = 18.360747
   celldm(2)        = 0.7905694150420948
   celldm(3)        = 5.12718
   celldm(4)        = 0.31622776601683794
/
&ELECTRONS
   electron_maxstep = 999
   scf_must_converge = .true.
   conv_thr         = 1e-06
   mixing_mode      = 'local-TF'
   mixing_beta      = 0.2
   diagonalization  = 'david'
   diago_thr_init   = 1e-12
   diago_david_ndim = 4
   diago_full_acc   = .true.
   startingwfc      = 'random'
/
&IONS
   ion_dynamics     = 'bfgs'
   upscale          = 1000000.0
   bfgs_ndim        = 1
/
&CELL
   press_conv_thr   = 0.1
   cell_dofree      = 'all'
/
&FCP
/
&RISM
/
ATOMIC_SPECIES
Li 6.94 Li.pbe-sl-kjpaw_psl.1.0.0.UPF

K_POINTS automatic
7 9 1  0 0 0

ATOMIC_POSITIONS angstrom
Li 0.0035949529 -0.4718327063 29.8161329802  
Li 2.4251629797 3.9991013593 20.6405385023  
Li 2.4254068535 0.8602537615 22.1470724872  
Li 4.8555357262 4.8657094429 22.6973179169  
Li 4.8567444077 1.5676724739 24.1393118100  
Li 2.4291028537 5.7859581097 25.0159031749  
Li 2.4308818696 2.3418630636 26.2955839742  
Li 4.8615470704 6.4460886177 27.6592759074  
Li 4.8618268938 3.4199359912 28.6305758198  
Li 2.4255195602 6.5086961794 22.1568575603  
Li 2.4271625508 3.3258560745 23.5205485218  
Li 4.8579647484 7.1688276590 24.8002293212  
Li 4.8593444331 4.1000456927 25.6768197145  
Li 4.8605540861 0.8020087237 27.1188145792  
Li 2.4326375668 4.8074653767 27.6690609805  
Li 2.4328804691 1.6686168073 29.1755949653  
Li 4.8544484959 6.1395518445 19.9999995159  
Li 4.8542619470 2.2477821754 21.1855566762  
Li 4.8616413165 -0.4718317347 29.8161329802  
Li 7.2832074001 3.9991013593 20.6405375307  
Li 7.2834512739 0.8602537615 22.1470715156  
Li 9.7135801466 4.8657094429 22.6973179169  
Li 9.7147888281 1.5676734455 24.1393118100  
Li 7.2871472741 5.7859571381 25.0159031749  
Li 7.2889262900 2.3418630636 26.2955830026  
Li 9.7195914908 6.4460895893 27.6592749358  
Li 9.7198722857 3.4199369628 28.6305767915  
Li 7.2835649521 6.5086961794 22.1568575603  
Li 7.2852069712 3.3258560745 23.5205485218  
Li 9.7160081972 7.1688276590 24.8002283496  
Li 9.7173888534 4.1000456927 25.6768206861  
Li 9.7185985065 0.8020096953 27.1188145792  
Li 7.2906819872 4.8074644051 27.6690609805  
Li 7.2909258610 1.6686177789 29.1755939937  
Li 9.7124938879 6.1395508728 19.9999995159  
Li 9.7123063674 2.2477821754 21.1855557046  

