&CONTROL
   calculation      = 'relax'
   verbosity        = 'high'
   restart_mode     = 'from_scratch'
   nstep            = 999
   tstress          = .false.
   tprnfor          = .true.
   outdir           = './Li/'
   prefix           = 'Lithium'
   etot_conv_thr    = 1e-05
   forc_conv_thr    = 0.000388
   disk_io          = 'minimal'
   pseudo_dir       = '/work/e89/e89/ba3g18/Repos/Pseudopotentials/Pslibrary'
/
&SYSTEM
   ibrav            = 8
   nbnd             = 117
   tot_charge       = 0.0
   ecutwfc          = 80.0
   ecutrho          = 800
   occupations      = 'smearing'
   degauss          = 0.01
   smearing         = 'cold'
   nspin            = 1
   input_dft        = 'pbe'
   lgcscf           = .true.
   gcscf_mu         = -4.904
   gcscf_conv_thr   = 0.001
   ntyp             = 1
   nat              = 52
   celldm(1)        = 12.983009
   celldm(2)        = 1.8027759999999997
   celldm(3)        = 7.57536
/
&ELECTRONS
   electron_maxstep = 999
   scf_must_converge = .true.
   conv_thr         = 1e-06
   mixing_mode      = 'local-TF'
   mixing_beta      = 0.2
   diagonalization  = 'david'
   diago_thr_init   = 1e-12
   diago_david_ndim = 4
   diago_full_acc   = .true.
   startingwfc      = 'random'
/
&IONS
   ion_dynamics     = 'bfgs'
   upscale          = 1000000.0
   bfgs_ndim        = 1
/
&CELL
   press_conv_thr   = 0.1
   cell_dofree      = 'all'
/
&FCP
/
&RISM
/
ATOMIC_SPECIES
Li 6.94 Li.pbe-sl-kjpaw_psl.1.0.0.UPF

K_POINTS automatic
10 6 1  0 0 0

ATOMIC_POSITIONS angstrom
Li 0.0000000000 7.8420118689 31.1701610411  
Li 0.0000000000 10.3475121245 29.4733332189  
Li 0.0000000000 2.7237389195 29.6193530162  
Li 0.0000000000 5.6816427277 28.3534347950  
Li 0.0000000000 8.5530972394 26.2035478054  
Li 0.0000000000 11.3497836808 24.6649019707  
Li 0.0000000000 0.8686136462 27.2243788060  
Li 0.0000000000 3.9319937812 25.0096479578  
Li 0.0000000000 6.7152970151 23.3319620447  
Li 0.0000000000 9.6978120697 21.2956090096  
Li 0.0000000000 2.0717591963 22.2630619546  
Li 0.0000000000 4.1386918512 20.0256076662  
Li 0.0000000000 1.2242652102 32.4213801506  
Li 1.7175832561 8.0522071534 28.7131498291  
Li 1.7175790138 10.8355101263 27.0354750486  
Li 1.7175757498 3.4176937134 27.3802252676  
Li 1.7175848186 6.2144192389 25.8415713865  
Li 1.7175889174 9.0858409026 23.6916749779  
Li 1.7175806472 12.0437120215 22.4257431693  
Li 1.7175719317 1.5132319827 24.8207273620  
Li 1.7175765102 4.4199739835 22.5717556493  
Li 1.7175798004 6.9254373990 20.8749473282  
Li 1.7175772642 10.6288214539 32.0194586962  
Li 1.7175797276 1.1576265836 19.6236837777  
Li 1.7175775637 5.0696059983 30.7494899919  
Li 1.7175750737 0.3100903507 29.7820256107  
Li 3.4351562293 7.8420118122 31.1701687338  
Li 3.4351562293 10.3475147916 29.4733333911  
Li 3.4351562293 2.7237360503 29.6193598383  
Li 3.4351562293 5.6816395233 28.3534361349  
Li 3.4351562293 8.5530998795 26.2035457141  
Li 3.4351562293 11.3497921487 24.6649057268  
Li 3.4351562293 0.8686165820 27.2243790517  
Li 3.4351562293 3.9319926064 25.0096375727  
Li 3.4351562293 6.7152838846 23.3319658517  
Li 3.4351562293 9.6978192462 21.2955952066  
Li 3.4351562293 2.0717566118 22.2630677829  
Li 3.4351562293 4.1386855538 20.0256170422  
Li 3.4351562293 1.2242679631 32.4213970097  
Li 5.1527292026 8.0522071534 28.7131498291  
Li 5.1527334449 10.8355101263 27.0354750486  
Li 5.1527367089 3.4176937134 27.3802252676  
Li 5.1527276401 6.2144192389 25.8415713865  
Li 5.1527235413 9.0858409026 23.6916749779  
Li 5.1527318115 12.0437120215 22.4257431693  
Li 5.1527405270 1.5132319827 24.8207273620  
Li 5.1527359485 4.4199739835 22.5717556493  
Li 5.1527326583 6.9254373990 20.8749473282  
Li 5.1527351945 10.6288214539 32.0194586962  
Li 5.1527327311 1.1576265836 19.6236837777  
Li 5.1527348950 5.0696059983 30.7494899919  
Li 5.1527373850 0.3100903507 29.7820256107  

