&CONTROL
   calculation      = 'scf'
   verbosity        = 'high'
   restart_mode     = 'from_scratch'
   nstep            = 999
   tstress          = .false.
   tprnfor          = .true.
   outdir           = './Li/'
   prefix           = 'Lithium'
   etot_conv_thr    = 1e-05
   forc_conv_thr    = 0.000388
   disk_io          = 'minimal'
   pseudo_dir       = '/work/e89/e89/ba3g18/Repos/Pseudopotentials/Pslibrary'
/
&SYSTEM
   ibrav            = 12
   nbnd             = 99
   tot_charge       = 0.0
   ecutwfc          = 80.0
   ecutrho          = 800
   occupations      = 'smearing'
   degauss          = 0.01
   smearing         = 'cold'
   nspin            = 1
   input_dft        = 'pbe'
   lgcscf           = .true.
   gcscf_mu         = -5.404
   gcscf_conv_thr   = 0.001
   ntyp             = 1
   nat              = 44
   celldm(1)        = 18.360747
   celldm(2)        = 0.8660252146075195
   celldm(3)        = 5.240449
   celldm(4)        = -0.28867519765379973
/
&ELECTRONS
   electron_maxstep = 999
   scf_must_converge = .true.
   conv_thr         = 1e-16
   mixing_mode      = 'local-TF'
   mixing_beta      = 0.2
   diagonalization  = 'david'
   diago_thr_init   = 1e-12
   diago_david_ndim = 4
   diago_full_acc   = .true.
   startingwfc      = 'random'
/
&IONS
   ion_dynamics     = 'bfgs'
   upscale          = 1000000.0
   bfgs_ndim        = 1
/
&CELL
   press_conv_thr   = 0.1
   cell_dofree      = 'all'
/
&FCP
/
&RISM
/
ATOMIC_SPECIES
Li 6.94 Li.pbe-sl-kjpaw_psl.1.0.0.UPF

K_POINTS automatic
7 8 1  0 0 0

ATOMIC_POSITIONS angstrom
Li -2.4279033751 6.6119649964 19.0821401445  
Li 2.4273639891 2.5697166994 31.2569087547  
Li -0.0005966120 4.6464846874 29.4477532282  
Li 2.4280728022 6.5280893022 28.2854279304  
Li 2.4277370687 0.8056589512 27.1757243832  
Li -0.0000960099 2.9598173966 26.3479901072  
Li 2.4293723032 5.0792485331 25.2718020193  
Li -0.0001678956 7.2847308790 24.1377152424  
Li 0.0009935535 1.5921711630 22.8876198481  
Li 2.4304527994 3.6444079337 22.0208924750  
Li 0.0008237348 5.4978029148 21.2948859813  
Li -0.0014301874 1.4822548369 28.8957870092  
Li 2.4280269834 3.5344800016 28.0290662308  
Li 0.0001668966 5.8980795279 26.7789648189  
Li 2.4286731628 8.1035322372 25.6448801529  
Li 2.4291176845 2.1668138159 24.5686822385  
Li 0.0012865382 4.3209987390 23.7409489105  
Li 2.4299708906 6.6547039883 22.6312521951  
Li 2.4296181879 0.4801555260 21.4689333217  
Li 0.0016552834 2.5569299733 19.6597642375  
Li 2.4279011006 6.5708192577 31.8345403059  
Li -0.0008247144 7.6850030283 29.6217921763  
Li 2.4301416356 6.6119647516 19.0821398380  
Li 7.2854089736 2.5697169598 31.2569085302  
Li 4.8574476917 4.6464847140 29.4477533214  
Li 7.2861169583 6.5280894883 28.2854278858  
Li 7.2857814680 0.8056588110 27.1757244529  
Li 4.8579487107 2.9598172895 26.3479907079  
Li 7.2874168946 5.0792486002 25.2718018043  
Li 4.8578770586 7.2847307211 24.1377152395  
Li 4.8590377775 1.5921708485 22.8876196672  
Li 7.2884975827 3.6444080595 22.0208931300  
Li 4.8588684449 5.4978022812 21.2948865641  
Li 4.8566141432 1.4822549239 28.8957876742  
Li 7.2860714375 3.5344795926 28.0290661279  
Li 4.8582113514 5.8980793125 26.7789647095  
Li 7.2867171203 8.1035322431 25.6448803229  
Li 7.2871618362 2.1668136108 24.5686826754  
Li 4.8593307227 4.3209989275 23.7409494052  
Li 7.2880154866 6.6547043873 22.6312521929  
Li 7.2876625722 0.4801553255 21.4689331613  
Li 4.8597002278 2.5569301898 19.6597638003  
Li 7.2859470143 6.5708195691 31.8345405934  
Li 4.8572194829 7.6850030458 29.6217929396  

