&CONTROL
   calculation      = 'scf'
   verbosity        = 'high'
   restart_mode     = 'from_scratch'
   nstep            = 999
   tstress          = .false.
   tprnfor          = .true.
   outdir           = './Li/'
   prefix           = 'Lithium'
   etot_conv_thr    = 1e-05
   forc_conv_thr    = 0.000388
   disk_io          = 'minimal'
   pseudo_dir       = '/work/e89/e89/ba3g18/Repos/Pseudopotentials/Pslibrary'
/
&SYSTEM
   ibrav            = 12
   nbnd             = 171
   tot_charge       = 0.0
   ecutwfc          = 80.0
   ecutrho          = 800
   occupations      = 'smearing'
   degauss          = 0.01
   smearing         = 'cold'
   nspin            = 1
   input_dft        = 'pbe'
   lgcscf           = .true.
   gcscf_mu         = -4.904
   gcscf_conv_thr   = 0.001
   ntyp             = 1
   nat              = 76
   celldm(1)        = 18.360747
   celldm(2)        = 1.1180342461771913
   celldm(3)        = 5.615419
   celldm(4)        = 0.22360674626453153
/
&ELECTRONS
   electron_maxstep = 999
   scf_must_converge = .true.
   conv_thr         = 1e-16
   mixing_mode      = 'local-TF'
   mixing_beta      = 0.2
   diagonalization  = 'david'
   diago_thr_init   = 1e-12
   diago_david_ndim = 4
   diago_full_acc   = .true.
   startingwfc      = 'random'
/
&IONS
   ion_dynamics     = 'bfgs'
   upscale          = 1000000.0
   bfgs_ndim        = 1
/
&CELL
   press_conv_thr   = 0.1
   cell_dofree      = 'all'
/
&FCP
/
&RISM
/
ATOMIC_SPECIES
Li 6.94 Li.pbe-sl-kjpaw_psl.1.0.0.UPF

K_POINTS automatic
7 6 1  0 0 0

ATOMIC_POSITIONS angstrom
Li 0.0102614568 -1.0917405469 34.9708844168  
Li 2.4182480305 7.5245254362 20.1026877964  
Li 2.4177254617 3.7081188195 21.2271319291  
Li 2.4170208624 0.4929682211 22.5015838468  
Li 4.8464622605 7.8468905893 22.4912879298  
Li 4.8467060889 4.3386630655 23.3059463070  
Li 4.8469723196 1.1576336994 24.2474644735  
Li 2.4217655256 8.2804473470 25.1200964984  
Li 2.4235574495 5.0478736956 25.8776659278  
Li 2.4246237010 1.6813232233 26.6615715925  
Li 4.8603341998 8.8465691373 27.5860746627  
Li 4.8630732865 5.5547197933 28.2702204799  
Li 4.8643824617 2.2922873161 29.1930952169  
Li 2.4375503057 9.6331416141 29.6342411445  
Li 2.4406354913 6.0600241391 30.5641412766  
Li 2.4404598365 2.7779564581 31.6178119117  
Li 4.8699453134 10.0784695802 32.1382501916  
Li 4.8696322652 7.1072160356 33.2493336563  
Li 4.8685217981 3.3923153379 34.0335846925  
Li 2.4171031844 9.4256072818 22.4217759741  
Li 2.4176038426 6.1381426797 22.9423116463  
Li 2.4174059568 2.8559262931 23.9957730145  
Li 4.8495419588 9.8711197521 24.9247954545  
Li 4.8517694590 6.6240047829 25.3667344193  
Li 4.8529573061 3.3615584445 26.2895948813  
Li 4.8557764254 0.0698291574 26.9736499271  
Li 2.4334094566 7.2348063094 27.8981421532  
Li 2.4344841595 3.8682854447 28.6818021670  
Li 2.4362567221 0.6357448663 29.4396856857  
Li 4.8690996424 7.7585239854 30.3120178571  
Li 4.8694026783 4.5774353196 31.2542310850  
Li 4.8696666128 1.0690540043 32.0687427552  
Li 2.4410282163 8.4230996992 32.0583859340  
Li 2.4403294065 5.2078800215 33.3332252003  
Li 2.4398087624 1.3911436949 34.4576396733  
Li 4.8477461752 10.0074870761 19.5890775033  
Li 4.8472189244 5.5232830504 20.5267746067  
Li 4.8466060338 1.8091029803 21.3105488860  
Li 4.8687569878 -1.0916212974 34.9710423580  
Li 7.2761665612 7.5241964683 20.1028600384  
Li 7.2758812328 3.7083641762 21.2271197849  
Li 7.2750731094 0.4928908574 22.5015540902  
Li 9.7044905675 7.8469728723 22.4913080631  
Li 9.7047314222 4.3385541716 23.3059205868  
Li 9.7050480836 1.1577216933 24.2473695370  
Li 7.2798562387 8.2805270664 25.1201761889  
Li 7.2815808204 5.0478009847 25.8777029617  
Li 7.2827087525 1.6814005818 26.6617051997  
Li 9.7183278675 8.8465541233 27.5860181275  
Li 9.7211771561 5.5547444124 28.2702012359  
Li 9.7223429546 2.2922302391 29.1930041966  
Li 7.2954879301 9.6331003347 29.6342669498  
Li 7.2988110787 6.0601203904 30.5643756894  
Li 7.2984278775 2.7779616005 31.6177753590  
Li 9.7280970462 10.0784274679 32.1385086390  
Li 9.7275038145 7.1069885762 33.2490791784  
Li 9.7269766066 3.3924422364 34.0335663803  
Li 7.2750838721 9.4256267723 22.4217175845  
Li 7.2756997665 6.1381679385 22.9424469331  
Li 7.2753431466 2.8558573886 23.9957639348  
Li 9.7076403767 9.8712137454 24.9248381132  
Li 9.7097690017 6.6239695198 25.3666880160  
Li 9.7110438069 3.3615829469 26.2895645703  
Li 9.7138038260 0.0697541799 26.9735573890  
Li 7.2914324370 7.2347181993 27.8982164802  
Li 7.2925465934 3.8684176454 28.6819186292  
Li 7.2942775612 0.6356135586 29.4398121475  
Li 9.7271429178 7.7586640294 30.3119553377  
Li 9.7274320623 4.5772853184 31.2541783354  
Li 9.7276586908 1.0691328392 32.0686903245  
Li 7.2990773965 8.4232833738 32.0584729529  
Li 7.2982477237 5.2075594801 33.3334354419  
Li 7.2979448816 1.3916203279 34.4575886341  
Li 9.7054099805 10.0073550313 19.5890550779  
Li 9.7055427956 5.5234540358 20.5268080375  
Li 9.7045319058 1.8089364810 21.3102978162  

