&CONTROL
   calculation      = 'scf'
   verbosity        = 'high'
   restart_mode     = 'from_scratch'
   nstep            = 999
   tstress          = .false.
   tprnfor          = .true.
   outdir           = './Li/'
   prefix           = 'Li'
   etot_conv_thr    = 1e-05
   forc_conv_thr    = 3e-05
   disk_io          = 'none'
   pseudo_dir       = '/home/ba3g18/Repos/Pseudopotentials/pslibrary.1.0.0/pbe/PSEUDOPOTENTIALS'
/
&SYSTEM
   ibrav            = 12
   nbnd             = 171
   tot_charge       = 0.0
   ecutwfc          = 80.0
   ecutrho          = 800
   occupations      = 'smearing'
   degauss          = 0.01
   smearing         = 'cold'
   nspin            = 1
   input_dft        = 'pbe'
   ntyp             = 1
   nat              = 76
   celldm(1)        = 18.360747000000003
   celldm(2)        = 1.1180342461771906
   celldm(3)        = 5.615419055231764
   celldm(4)        = 0.2236067462645312
/
&ELECTRONS
   electron_maxstep = 999
   scf_must_converge = .true.
   conv_thr         = 1e-12
   mixing_mode      = 'local-TF'
   mixing_beta      = 0.1
   diagonalization  = 'david'
   startingwfc      = 'random'
/
&IONS
   ion_dynamics     = 'bfgs'
   upscale          = 1000000.0
   bfgs_ndim        = 6
/
&CELL
   press_conv_thr   = 0.1
   cell_dofree      = 'all'
/
&FCP
/
&RISM
/
ATOMIC_SPECIES
Li 6.94 Li.pbe-sl-kjpaw_psl.1.0.0.UPF

K_POINTS automatic
7 6 1  0 0 0

ATOMIC_POSITIONS angstrom
Li 0.0098956517 -0.5309374168 34.5599102949  
Li 2.4190350642 7.2909061274 20.3717815277  
Li 2.4194642904 3.7724029232 21.3646683389  
Li 2.4193088435 0.6389765818 22.2900090485  
Li 4.8482727242 7.8959705024 22.5616039964  
Li 4.8484585811 4.2616973919 23.4369470810  
Li 4.8483833742 1.0817921752 24.2860249385  
Li 2.4203341977 8.3928929595 24.9638704394  
Li 2.4231691270 5.0415446901 25.9088857543  
Li 2.4261364639 1.5861626960 26.8296427622  
Li 4.8595148883 8.8968940589 27.5021896041  
Li 4.8625708888 5.6187528815 28.2129419146  
Li 4.8653132196 2.2556436531 29.2157030498  
Li 2.4384214603 9.5364865945 29.7422131062  
Li 2.4384964842 6.1483539396 30.3974009554  
Li 2.4387547099 2.8083192209 31.4842896653  
Li 4.8678029499 9.9659375376 32.3684232857  
Li 4.8676664282 6.9338296340 33.2380839336  
Li 4.8678588807 3.3784961237 33.7377181144  
Li 2.4192610300 9.5380174539 22.1914884169  
Li 2.4192889429 6.1077734210 23.0756185624  
Li 2.4195477960 2.7677391593 24.1625113348  
Li 4.8486469515 9.9674766142 24.8176937725  
Li 4.8507780886 6.6604508128 25.3442057966  
Li 4.8535206391 3.2973401854 26.3469653691  
Li 4.8565768866 0.0192081795 27.0577189979  
Li 2.4319106045 7.3299312999 27.7302699440  
Li 2.4348779244 3.8745527318 28.6510199800  
Li 2.4377119840 0.5232045502 29.5960422696  
Li 4.8677056262 7.8343025773 30.2738832407  
Li 4.8676302128 4.6543963052 31.1229624199  
Li 4.8678141562 1.0201216609 31.9983058355  
Li 2.4387317079 8.2771178051 32.2698980185  
Li 2.4385778552 5.1436900626 33.1952440876  
Li 2.4390068860 1.6251866123 34.1881264800  
Li 4.8481486263 9.4470310917 20.0000000000  
Li 4.8482270570 5.5375950054 20.8221900317  
Li 4.8484192323 1.9822585991 21.3218235894  
Li 4.8679397436 -0.5309361934 34.5599104186  
Li 7.2770792489 7.2909059542 20.3717815596  
Li 7.2775087639 3.7724029880 21.3646685455  
Li 7.2773533172 0.6389765337 22.2900090903  
Li 9.7063173588 7.8959706681 22.5616040524  
Li 9.7065030909 4.2616973789 23.4369469832  
Li 9.7064276719 1.0817919965 24.2860249582  
Li 7.2783786001 8.3928930073 24.9638710368  
Li 7.2812137101 5.0415448137 25.9088858384  
Li 7.2841809203 1.5861626939 26.8296429976  
Li 9.7175591469 8.8968942677 27.5021896235  
Li 9.7206154453 5.6187530528 28.2129416541  
Li 9.7233575384 2.2556434319 29.2157027512  
Li 7.2964657052 9.5364865566 29.7422132334  
Li 7.2965416391 6.1483540809 30.3974016942  
Li 7.2967990716 2.8083191402 31.4842897523  
Li 9.7258475695 9.9659371375 32.3684237040  
Li 9.7257104280 6.9338285297 33.2380825464  
Li 9.7259036478 3.3784967545 33.7377177994  
Li 7.2773052954 9.5380172563 22.1914889146  
Li 7.2773335472 6.1077735834 23.0756186154  
Li 7.2775923420 2.7677389610 24.1625113158  
Li 9.7066913537 9.9674768744 24.8176936378  
Li 9.7088226213 6.6604508856 25.3442059153  
Li 9.7115650695 3.2973401690 26.3469652728  
Li 9.7146213983 0.0192078997 27.0577189565  
Li 7.2899551049 7.3299311687 27.7302704877  
Li 7.2929226118 3.8745527664 28.6510200054  
Li 7.2957563900 0.5232043363 29.5960425617  
Li 9.7257498568 7.8343029845 30.2738827715  
Li 9.7256749540 4.6543955279 31.1229617838  
Li 9.7258584600 1.0201216122 31.9983058615  
Li 7.2967760376 8.2771182625 32.2698981469  
Li 7.2966216070 5.1436897740 33.1952445716  
Li 7.2970519647 1.6251866233 34.1881263004  
Li 9.7061927017 9.4470305544 20.0000000180  
Li 9.7062716216 5.5375953460 20.8221901197  
Li 9.7064634966 1.9822588194 21.3218237567  

