&CONTROL
   calculation      = 'relax'
   verbosity        = 'high'
   restart_mode     = 'from_scratch'
   nstep            = 999
   tstress          = .false.
   tprnfor          = .true.
   outdir           = './Li/'
   prefix           = 'Lithium'
   etot_conv_thr    = 1e-05
   forc_conv_thr    = 0.000388
   disk_io          = 'minimal'
   pseudo_dir       = '/home/mmm1182/Repos/Pseudopotentials/pslibrary'
/
&SYSTEM
   ibrav            = 12
   nbnd             = 81
   tot_charge       = 0.0
   ecutwfc          = 80.0
   ecutrho          = 800
   occupations      = 'smearing'
   degauss          = 0.01
   smearing         = 'cold'
   nspin            = 1
   input_dft        = 'pbe'
   lgcscf           = .true.
   gcscf_mu         = -4.404
   gcscf_conv_thr   = 0.001
   ntyp             = 1
   nat              = 36
   celldm(1)        = 18.360747
   celldm(2)        = 0.7905694150420948
   celldm(3)        = 5.12718
   celldm(4)        = 0.31622776601683794
/
&ELECTRONS
   electron_maxstep = 999
   scf_must_converge = .true.
   conv_thr         = 1e-06
   mixing_mode      = 'local-TF'
   mixing_beta      = 0.2
   diagonalization  = 'david'
   diago_thr_init   = 1e-12
   diago_david_ndim = 4
   diago_full_acc   = .true.
   startingwfc      = 'random'
/
&IONS
   ion_dynamics     = 'bfgs'
   upscale          = 1000000.0
   bfgs_ndim        = 1
/
&CELL
   press_conv_thr   = 0.1
   cell_dofree      = 'all'
/
&FCP
/
&RISM
/
ATOMIC_SPECIES
Li 6.94 Li.pbe-sl-kjpaw_psl.1.0.0.UPF

K_POINTS automatic
7 9 1  0 0 0

ATOMIC_POSITIONS angstrom
Li 0.0009201730 -1.1067786041 30.2020782049  
Li 2.4282656963 3.9802327222 20.2629170586  
Li 2.4288080999 0.6933297049 22.3558370684  
Li 4.8576284827 4.8959276412 22.5228931760  
Li 4.8578718329 1.5331912720 24.1902953843  
Li 2.4295983344 5.8184800228 24.8028339494  
Li 2.4295515475 2.3439513707 26.4482313086  
Li 4.8584652582 6.5181395107 27.8139872700  
Li 4.8584855093 3.6007954935 28.6478583752  
Li 2.4286074791 6.4365972561 22.0021468042  
Li 2.4284845145 3.3237758536 23.3679982089  
Li 4.8574666783 7.1363738139 25.0134605150  
Li 4.8582050209 4.1345868671 25.6259635883  
Li 4.8584631758 0.7717450872 27.2932900358  
Li 2.4292409906 4.9743601268 27.4602648477  
Li 2.4298229053 1.6876234389 29.5529171557  
Li 4.8573933360 6.7744240613 19.6138211043  
Li 4.8576209755 2.0669020809 21.1681698680  
Li 4.8586735124 -1.1068228019 30.2020760495  
Li 7.2862662317 3.9802056404 20.2629874490  
Li 7.2868499066 0.6933139767 22.3558408493  
Li 9.7156527170 4.8959423304 22.5229040945  
Li 9.7159407630 1.5331932204 24.1902769393  
Li 7.2876476602 5.8184962958 24.8028261617  
Li 7.2876121760 2.3439385204 26.4483196107  
Li 9.7165041369 6.5181368719 27.8140325337  
Li 9.7164619692 3.6007528904 28.6478775394  
Li 7.2866483313 6.4365830917 22.0021631121  
Li 7.2865328327 3.3237693262 23.3680701329  
Li 9.7155090754 7.1364071429 25.0134929358  
Li 9.7162482690 4.1345911238 25.6259855082  
Li 9.7165229335 0.7717289044 27.2932880297  
Li 7.2872769553 4.9744195398 27.4602527180  
Li 7.2878231458 1.6875673806 29.5530305417  
Li 9.7151902559 6.7743886726 19.6138316084  
Li 9.7156984727 2.0669343620 21.1681642203  

