&CONTROL
   calculation      = 'relax'
   restart_mode     = 'from_scratch'
   tstress          = .false.
   tprnfor          = .true.
   outdir           = './'
   etot_conv_thr    = 1e-05
   forc_conv_thr    = 0.000388
   disk_io          = 'none'
   pseudo_dir       = '/iridisfs/home/ba3g18/Repos/Pseudopotentials/pslibrary.1.0.0/pbe/PSEUDOPOTENTIALS'
/
&SYSTEM
   ibrav            = 0
   nbnd             = 81
   ecutwfc          = 80
   ecutrho          = 800
   occupations      = 'smearing'
   degauss          = 0.01
   smearing         = 'cold'
   input_dft        = 'PBE'
   ntyp             = 1
   nat              = 36
/
&ELECTRONS
   electron_maxstep = 200
   conv_thr         = 1e-06
   mixing_mode      = 'local-TF'
   mixing_beta      = 0.2
   diagonalization  = 'david'
/
&IONS
   ion_dynamics     = 'bfgs'
   upscale          = 1000000.0
   bfgs_ndim        = 1
/
&CELL
   press_conv_thr   = 0.1
   cell_dofree      = 'all'
/
&FCP
/
&RISM
/
ATOMIC_SPECIES
Li 6.94 Li.pbe-sl-kjpaw_psl.1.0.0.UPF

K_POINTS automatic
7 9 1  0 0 0

CELL_PARAMETERS angstrom
9.71608884000000 0.00000000000000 0.00000000000000
2.42902221000000 7.28706663000000 0.00000000000000
0.00000000000000 0.00000000000000 30.91641009000000

ATOMIC_POSITIONS angstrom
Li 0.0075186100 -0.5581392500 20.2939896300  
Li 2.4210042200 4.0481375200 11.2087735300  
Li 2.4226062600 0.9457621300 12.7407519900  
Li 4.8551853900 4.8485755600 13.2285434600  
Li 4.8565603000 1.5948339400 14.6601801200  
Li 2.4288751700 5.8190066400 15.5922762300  
Li 2.4307528200 2.2787606100 16.8108975200  
Li 4.8634090400 6.4118352400 18.1966213100  
Li 4.8643951400 3.4350668600 19.2904873300  
Li 2.4236604900 6.5429491400 12.7197870400  
Li 2.4272894200 3.3889587900 14.1055222700  
Li 4.8581956400 7.1357864500 15.3241319400  
Li 4.8595288000 4.0728892100 16.2562198600  
Li 4.8609003400 0.8191360000 17.6878569500  
Li 2.4354370600 4.7219613300 18.1756552200  
Li 2.4370449000 1.6195713000 19.7076437700  
Li 4.8505089100 6.2258642000 10.6224147300  
Li 4.8516853700 2.2326261600 11.6259049200  
Li 4.8656109500 -0.5581401600 20.2939863000  
Li 7.2790276900 4.0481359800 11.2087673000  
Li 7.2806523400 0.9457598000 12.7407442300  
Li 9.7132340200 4.8485858800 13.2285479900  
Li 9.7146021000 1.5948304400 14.6601862000  
Li 7.2869193900 5.8189980400 15.5922790300  
Li 7.2887921400 2.2787595600 16.8108815100  
Li 9.7214492500 6.4118422500 18.1966088300  
Li 9.7224542900 3.4350877000 19.2905001100  
Li 7.2817026500 6.5429422200 12.7197923200  
Li 7.2853431200 3.3889593900 14.1055096900  
Li 9.7162342800 7.1357842200 15.3241245800  
Li 9.7175760300 4.0728871100 16.2562231400  
Li 9.7189463000 0.8191432800 17.6878624000  
Li 7.2934817300 4.7219489700 18.1756588900  
Li 7.2951003500 1.6195897700 19.7076275400  
Li 9.7085380200 6.2258458400 10.6224157600  
Li 9.7097315600 2.2326569600 11.6259220500  

