&CONTROL
   calculation      = 'relax'
   verbosity        = 'high'
   restart_mode     = 'from_scratch'
   nstep            = 999
   tstress          = .false.
   tprnfor          = .true.
   outdir           = './Li/'
   prefix           = 'Lithium'
   etot_conv_thr    = 1e-05
   forc_conv_thr    = 0.000388
   disk_io          = 'minimal'
   pseudo_dir       = '/home/mmm1182/Repos/Pseudopotentials/pslibrary'
/
&SYSTEM
   ibrav            = 8
   nbnd             = 117
   tot_charge       = 0.0
   ecutwfc          = 80.0
   ecutrho          = 800
   occupations      = 'smearing'
   degauss          = 0.01
   smearing         = 'cold'
   nspin            = 1
   input_dft        = 'pbe'
   lgcscf           = .true.
   gcscf_mu         = -4.404
   gcscf_conv_thr   = 0.001
   ntyp             = 1
   nat              = 52
   celldm(1)        = 12.983009
   celldm(2)        = 1.8027759999999997
   celldm(3)        = 7.57536
/
&ELECTRONS
   electron_maxstep = 999
   scf_must_converge = .true.
   conv_thr         = 1e-06
   mixing_mode      = 'local-TF'
   mixing_beta      = 0.2
   diagonalization  = 'david'
   diago_thr_init   = 1e-12
   diago_david_ndim = 4
   diago_full_acc   = .true.
   startingwfc      = 'random'
/
&IONS
   ion_dynamics     = 'bfgs'
   upscale          = 1000000.0
   bfgs_ndim        = 1
/
&CELL
   press_conv_thr   = 0.1
   cell_dofree      = 'all'
/
&FCP
/
&RISM
/
ATOMIC_SPECIES
Li 6.94 Li.pbe-sl-kjpaw_psl.1.0.0.UPF

K_POINTS automatic
10 6 1  0 0 0

ATOMIC_POSITIONS angstrom
Li 0.0000000000 7.8422305368 31.1317163121  
Li 0.0000000000 10.3620145427 29.4355997328  
Li 0.0000000000 2.7477477016 29.6009670088  
Li 0.0000000000 5.6848885070 28.3801345455  
Li 0.0000000000 8.5531471296 26.1960114327  
Li 0.0000000000 11.3523446370 24.6676120784  
Li 0.0000000000 0.8711364123 27.2192095249  
Li 0.0000000000 3.9345934614 25.0099936035  
Li 0.0000000000 6.7096766120 23.3463551807  
Li 0.0000000000 9.7538368125 21.2652319668  
Li 0.0000000000 2.0406631805 22.3128825905  
Li 0.0000000000 4.1169646200 20.1336554228  
Li 0.0000000000 1.2252263630 32.2015654325  
Li 1.7175782693 8.0578006238 28.6987455350  
Li 1.7175765144 10.8328998827 27.0350951930  
Li 1.7175790808 3.4151549731 27.3774513788  
Li 1.7175772546 6.2143438027 25.8490795782  
Li 1.7175759109 9.0825996086 23.6649693276  
Li 1.7175758457 12.0197355808 22.4441033470  
Li 1.7175775188 1.5107306429 24.8258581848  
Li 1.7175764935 4.4054518410 22.6095193771  
Li 1.7175767090 6.9252198351 20.9133952650  
Li 1.7175772108 10.6505091458 31.9114810036  
Li 1.7175782344 1.1566591475 19.8435677927  
Li 1.7175788866 5.0136272291 30.7798767966  
Li 1.7175772914 0.3411849975 29.7322347619  
Li 3.4351562293 7.8422316288 31.1317148863  
Li 3.4351562293 10.3620193026 29.4355962883  
Li 3.4351562293 2.7477478467 29.6009718317  
Li 3.4351562293 5.6848878003 28.3801338413  
Li 3.4351562293 8.5531476507 26.1960114388  
Li 3.4351562293 11.3523476545 24.6676119605  
Li 3.4351562293 0.8711382383 27.2192159228  
Li 3.4351562293 3.9345930708 25.0099917769  
Li 3.4351562293 6.7096767537 23.3463541245  
Li 3.4351562293 9.7538360843 21.2652425347  
Li 3.4351562293 2.0406609403 22.3128837887  
Li 3.4351562293 4.1169648251 20.1336595617  
Li 3.4351562293 1.2252216335 32.2015672174  
Li 5.1527341894 8.0578006238 28.6987455350  
Li 5.1527359443 10.8328998827 27.0350951930  
Li 5.1527333779 3.4151549731 27.3774513788  
Li 5.1527352041 6.2143438027 25.8490795782  
Li 5.1527365478 9.0825996086 23.6649693276  
Li 5.1527366130 12.0197355808 22.4441033470  
Li 5.1527349399 1.5107306429 24.8258581848  
Li 5.1527359652 4.4054518410 22.6095193771  
Li 5.1527357497 6.9252198351 20.9133952650  
Li 5.1527352479 10.6505091458 31.9114810036  
Li 5.1527342243 1.1566591475 19.8435677927  
Li 5.1527335721 5.0136272291 30.7798767966  
Li 5.1527351673 0.3411849975 29.7322347619  

