&CONTROL
   calculation      = 'scf'
   verbosity        = 'high'
   restart_mode     = 'from_scratch'
   nstep            = 999
   tstress          = .false.
   tprnfor          = .true.
   outdir           = './Li/'
   prefix           = 'Lithium'
   etot_conv_thr    = 1e-05
   forc_conv_thr    = 0.000388
   disk_io          = 'minimal'
   pseudo_dir       = '/work/e89/e89/ba3g18/Repos/Pseudopotentials/Pslibrary'
/
&SYSTEM
   ibrav            = 8
   nbnd             = 99
   tot_charge       = 0.0
   ecutwfc          = 80.0
   ecutrho          = 800
   occupations      = 'smearing'
   degauss          = 0.01
   smearing         = 'cold'
   nspin            = 1
   input_dft        = 'pbe'
   lgcscf           = .true.
   gcscf_mu         = -1.654
   gcscf_conv_thr   = 0.001
   ntyp             = 1
   nat              = 44
   celldm(1)        = 18.360747
   celldm(2)        = 0.586302
   celldm(3)        = 5.699811
/
&ELECTRONS
   electron_maxstep = 999
   scf_must_converge = .true.
   conv_thr         = 1e-14
   mixing_mode      = 'local-TF'
   mixing_beta      = 0.2
   diagonalization  = 'david'
   diago_thr_init   = 1e-12
   diago_david_ndim = 4
   diago_full_acc   = .true.
   startingwfc      = 'random'
/
&IONS
   ion_dynamics     = 'bfgs'
   upscale          = 1000000.0
   bfgs_ndim        = 1
/
&CELL
   press_conv_thr   = 0.1
   cell_dofree      = 'all'
/
&FCP
/
&RISM
/
ATOMIC_SPECIES
Li 6.94 Li.pbe-sl-kjpaw_psl.1.0.0.UPF

K_POINTS automatic
7 12 1  0 0 0

ATOMIC_POSITIONS angstrom
Li 4.8580444204 5.7488822010 35.1909978489  
Li 2.4289383566 4.0906673251 20.1886704070  
Li 2.4290350999 1.0716625596 21.5753071152  
Li 4.8580444204 2.2900713350 20.5074469556  
Li 0.0000000000 4.9662631146 22.0052662761  
Li 4.8580444204 1.9280596471 23.5006497953  
Li 2.4289970283 3.0979035447 26.0024668488  
Li 2.4290185906 5.7485251769 27.3967682051  
Li 2.4290272225 3.5972983715 23.0867587383  
Li 2.4290214427 0.5079788621 24.4452434345  
Li 0.0000000000 4.5426969654 25.0270095850  
Li 4.8580444204 1.4851194827 26.4408205645  
Li 4.8580444204 4.0908068612 27.9829395908  
Li 4.8580444204 1.0445355387 29.3773329019  
Li 2.4291004850 5.2965629103 30.3530045894  
Li 2.4288614416 2.2147866686 31.8792908201  
Li 2.4290042663 2.6574364599 28.9390003474  
Li 0.0000000000 3.6345828166 30.9348259014  
Li 4.8580444204 0.5452440028 32.2928604978  
Li 4.8580444204 3.0715879122 33.8042041686  
Li 2.4290261668 4.8734091807 33.3747146898  
Li 2.4292232915 1.8532487849 34.8725124517  
Li 9.7160888407 5.7494578219 35.1911748112  
Li 7.2871504841 4.0906673251 20.1886704070  
Li 7.2870537408 1.0716625596 21.5753071152  
Li 9.7160888407 2.2899967819 20.5074314053  
Li 4.8580444204 4.9663424807 22.0050415446  
Li 9.7160888407 1.9282852102 23.5006481650  
Li 7.2870918125 3.0979035447 26.0024668488  
Li 7.2870702502 5.7485251769 27.3967682051  
Li 7.2870616183 3.5972983715 23.0867587383  
Li 7.2870673980 0.5079788621 24.4452434345  
Li 4.8580444204 4.5428778343 25.0266808089  
Li 9.7160888407 1.4854882763 26.4409121243  
Li 9.7160888407 4.0906109004 27.9833247298  
Li 9.7160888407 1.0451320172 29.3774158481  
Li 7.2869883557 5.2965629103 30.3530045894  
Li 7.2872273992 2.2147866686 31.8792908201  
Li 7.2870845744 2.6574364599 28.9390003474  
Li 4.8580444204 3.6350622520 30.9341560585  
Li 9.7160888407 0.5461918257 32.2930992799  
Li 9.7160888407 3.0712380980 33.8047171476  
Li 7.2870626740 4.8734091807 33.3747146898  
Li 7.2868655492 1.8532487849 34.8725124517  

