&CONTROL
   calculation      = 'relax'
   restart_mode     = 'from_scratch'
   tstress          = .false.
   tprnfor          = .true.
   outdir           = './'
   etot_conv_thr    = 1e-05
   forc_conv_thr    = 0.000388
   disk_io          = 'none'
   pseudo_dir       = '/iridisfs/home/ba3g18/Repos/Pseudopotentials/pslibrary.1.0.0/pbe/PSEUDOPOTENTIALS'
/
&SYSTEM
   ibrav            = 0
   nbnd             = 63
   ecutwfc          = 80
   ecutrho          = 800
   occupations      = 'smearing'
   degauss          = 0.01
   smearing         = 'cold'
   input_dft        = 'PBE'
   ntyp             = 1
   nat              = 28
/
&ELECTRONS
   electron_maxstep = 200
   conv_thr         = 1e-06
   mixing_mode      = 'local-TF'
   mixing_beta      = 0.2
   diagonalization  = 'david'
/
&IONS
   ion_dynamics     = 'bfgs'
   upscale          = 1000000.0
   bfgs_ndim        = 1
/
&CELL
   press_conv_thr   = 0.1
   cell_dofree      = 'all'
/
&FCP
/
&RISM
/
ATOMIC_SPECIES
Li 6.94 Li.pbe-sl-kjpaw_psl.1.0.0.UPF

K_POINTS automatic
11 9 1  0 0 0

CELL_PARAMETERS angstrom
5.94986480000000 0.00000000000000 0.00000000000000
-0.99164612000000 7.42078442000000 0.00000000000000
0.00000000000000 0.00000000000000 38.55953274000000

ATOMIC_POSITIONS angstrom
Li 0.2575957900 -0.2445065300 25.1176177100  
Li -0.2576134900 5.0150079500 13.4419152000  
Li 0.7735283000 2.1557184200 14.1376991800  
Li 1.0678692900 7.0233226600 15.2257963600  
Li 1.6982159300 4.2295796300 15.9700727400  
Li 0.0284746200 1.6876785000 17.0081556500  
Li -0.1537504100 6.3211243100 17.8441615000  
Li 1.0632935400 3.7753201700 18.8548786000  
Li 1.9116352300 0.9952009600 19.7046525000  
Li 2.1370335300 5.8701766200 20.7153701200  
Li -0.0284579700 3.0828289400 21.5513787000  
Li 1.2767060900 0.5409216500 22.5894640100  
Li 0.9154236100 5.1679615200 23.3337350400  
Li 2.2014216000 2.6147770200 24.4218258400  
Li 3.2325279200 -0.2445154300 25.1176214300  
Li 2.7173190700 5.0149978200 13.4419196100  
Li 3.7484606900 2.1557085300 14.1376920400  
Li 4.0428014700 7.0233187900 15.2257995200  
Li 4.6731483800 4.2295725400 15.9700672400  
Li 3.0034063100 1.6876811500 17.0081514300  
Li 2.8211822800 6.3211282900 17.8441656400  
Li 4.0382260000 3.7753199500 18.8548753400  
Li 4.8865678200 0.9952025600 19.7046563500  
Li 5.1119653900 5.8701741800 20.7153656000  
Li 2.9464739800 3.0828303700 21.5513742000  
Li 4.2516389200 0.5409285600 22.5894702500  
Li 3.8903561100 5.1679640400 23.3337320200  
Li 5.1763530900 2.6147872200 24.4218358300  

