&CONTROL
   calculation      = 'scf'
   verbosity        = 'high'
   restart_mode     = 'from_scratch'
   nstep            = 999
   tstress          = .false.
   tprnfor          = .true.
   outdir           = './Li/'
   prefix           = 'Lithium'
   etot_conv_thr    = 1e-05
   forc_conv_thr    = 0.000388
   disk_io          = 'minimal'
   pseudo_dir       = '/work/e89/e89/ba3g18/Repos/Pseudopotentials/Pslibrary'
/
&SYSTEM
   ibrav            = 8
   nbnd             = 117
   tot_charge       = 0.0
   ecutwfc          = 80.0
   ecutrho          = 800
   occupations      = 'smearing'
   degauss          = 0.01
   smearing         = 'cold'
   nspin            = 1
   input_dft        = 'pbe'
   lgcscf           = .true.
   gcscf_mu         = -2.404
   gcscf_conv_thr   = 0.001
   ntyp             = 1
   nat              = 52
   celldm(1)        = 12.983009
   celldm(2)        = 1.8027759999999997
   celldm(3)        = 7.57536
/
&ELECTRONS
   electron_maxstep = 999
   scf_must_converge = .true.
   conv_thr         = 1e-14
   mixing_mode      = 'local-TF'
   mixing_beta      = 0.2
   diagonalization  = 'david'
   diago_thr_init   = 1e-12
   diago_david_ndim = 4
   diago_full_acc   = .true.
   startingwfc      = 'random'
/
&IONS
   ion_dynamics     = 'bfgs'
   upscale          = 1000000.0
   bfgs_ndim        = 1
/
&CELL
   press_conv_thr   = 0.1
   cell_dofree      = 'all'
/
&FCP
/
&RISM
/
ATOMIC_SPECIES
Li 6.94 Li.pbe-sl-kjpaw_psl.1.0.0.UPF

K_POINTS automatic
10 6 1  0 0 0

ATOMIC_POSITIONS angstrom
Li 0.0000000000 7.8969119294 31.0268915345  
Li 0.0000000000 10.5633438090 29.0338271732  
Li 0.0000000000 2.9527523601 30.1848864773  
Li 0.0000000000 5.7613071081 28.1935535960  
Li 0.0000000000 8.5766731413 26.2574570794  
Li 0.0000000000 11.4125913195 24.2539973727  
Li 0.0000000000 0.9910140115 27.2102078348  
Li 0.0000000000 3.7742290806 25.3811036394  
Li 0.0000000000 6.6137308000 23.3920955656  
Li 0.0000000000 9.3610719098 21.4694273925  
Li 0.0000000000 1.8311599093 22.4838103237  
Li 0.0000000000 4.3728257568 20.6603648180  
Li 0.0000000000 0.4851150371 31.9805024064  
Li 1.7175809731 8.1602516154 28.6536651621  
Li 1.7175736017 10.9939465545 26.6574745225  
Li 1.7175908929 3.3609794722 27.7843892685  
Li 1.7175847183 6.1928852792 25.7895784803  
Li 1.7175817529 9.0145956914 23.8515807700  
Li 1.7175781174 11.8139157510 21.8625607130  
Li 1.7175808430 1.3933840484 24.8311822026  
Li 1.7175792374 4.2114352995 23.0227203538  
Li 1.7175792280 6.8746305289 21.0115177833  
Li 1.7175787631 10.3804960293 31.3968488570  
Li 1.7175832418 1.8619949390 20.0689180070  
Li 1.7175898942 5.4141307536 30.5658465539  
Li 1.7175821945 0.5550103563 29.5619552028  
Li 3.4351562293 7.8969300731 31.0268829047  
Li 3.4351562293 10.5633533179 29.0338227164  
Li 3.4351562293 2.9527400059 30.1848682171  
Li 3.4351562293 5.7613030399 28.1935431883  
Li 3.4351562293 8.5766926688 26.2574493852  
Li 3.4351562293 11.4126138987 24.2540163182  
Li 3.4351562293 0.9910082391 27.2102021647  
Li 3.4351562293 3.7742347051 25.3810944109  
Li 3.4351562293 6.6137071092 23.3920802645  
Li 3.4351562293 9.3610650995 21.4694087264  
Li 3.4351562293 1.8311568316 22.4838093327  
Li 3.4351562293 4.3728252755 20.6603848782  
Li 3.4351562293 0.4851060054 31.9804982914  
Li 5.1527314856 8.1602516154 28.6536651621  
Li 5.1527388569 10.9939465545 26.6574745225  
Li 5.1527215657 3.3609794722 27.7843892685  
Li 5.1527277404 6.1928852792 25.7895784803  
Li 5.1527307058 9.0145956914 23.8515807700  
Li 5.1527343412 11.8139157510 21.8625607130  
Li 5.1527316157 1.3933840484 24.8311822026  
Li 5.1527332213 4.2114352995 23.0227203538  
Li 5.1527332307 6.8746305289 21.0115177833  
Li 5.1527336956 10.3804960293 31.3968488570  
Li 5.1527292169 1.8619949390 20.0689180070  
Li 5.1527225645 5.4141307536 30.5658465539  
Li 5.1527302641 0.5550103563 29.5619552028  

