&CONTROL
   calculation      = 'scf'
   verbosity        = 'high'
   restart_mode     = 'from_scratch'
   nstep            = 999
   tstress          = .false.
   tprnfor          = .true.
   outdir           = './Li/'
   prefix           = 'Lithium'
   etot_conv_thr    = 1e-05
   forc_conv_thr    = 0.000388
   disk_io          = 'minimal'
   pseudo_dir       = '/home/mmm1182/Repos/Pseudopotentials/pslibrary'
/
&SYSTEM
   ibrav            = 8
   nbnd             = 99
   tot_charge       = 0.0
   ecutwfc          = 80.0
   ecutrho          = 800
   occupations      = 'smearing'
   degauss          = 0.01
   smearing         = 'cold'
   nspin            = 1
   input_dft        = 'pbe'
   lgcscf           = .true.
   gcscf_mu         = -3.904
   gcscf_conv_thr   = 0.001
   ntyp             = 1
   nat              = 44
   celldm(1)        = 18.360747
   celldm(2)        = 0.586302
   celldm(3)        = 5.699811
/
&ELECTRONS
   electron_maxstep = 999
   scf_must_converge = .true.
   conv_thr         = 1e-14
   mixing_mode      = 'local-TF'
   mixing_beta      = 0.2
   diagonalization  = 'david'
   diago_thr_init   = 1e-12
   diago_david_ndim = 4
   diago_full_acc   = .true.
   startingwfc      = 'random'
/
&IONS
   ion_dynamics     = 'bfgs'
   upscale          = 1000000.0
   bfgs_ndim        = 1
/
&CELL
   press_conv_thr   = 0.1
   cell_dofree      = 'all'
/
&FCP
/
&RISM
/
ATOMIC_SPECIES
Li 6.94 Li.pbe-sl-kjpaw_psl.1.0.0.UPF

K_POINTS automatic
7 12 1  0 0 0

ATOMIC_POSITIONS angstrom
Li 4.8580444204 5.2332879455 35.7624318966  
Li 2.4289829500 4.6053726882 19.6175154167  
Li 2.4290471712 0.9705701005 21.8864720269  
Li 4.8580444204 2.0991005950 20.3831310502  
Li -0.0000000000 4.9129440673 21.9185744488  
Li 4.8580444204 1.8923112245 23.5239399141  
Li 2.4290604554 3.1289600701 25.7846449901  
Li 2.4290008142 5.6995944394 27.5410330531  
Li 2.4290335687 3.6759183860 22.7607924251  
Li 2.4290052966 0.4395624795 24.6579575348  
Li -0.0000000000 4.5574369679 24.9077602242  
Li 4.8580444204 1.4533741590 26.5780267099  
Li 4.8580444204 4.1399648456 27.8386207762  
Li 4.8580444204 1.0139662598 29.5952860682  
Li 2.4289933826 5.2820519117 30.4722293259  
Li 2.4289998913 2.2506235872 31.8559237057  
Li 2.4290662241 2.6895403028 28.8018835751  
Li -0.0000000000 3.7032597727 30.7222726184  
Li 4.8580444204 0.4671840274 32.6191974482  
Li 4.8580444204 3.1728325455 33.4926576188  
Li 2.4289121069 4.9266089631 33.4613239993  
Li 2.4300880610 2.0438572171 34.9966693156  
Li 9.7160888407 5.2350655391 35.7621476986  
Li 7.2871058908 4.6053726882 19.6175154167  
Li 7.2870416695 0.9705701005 21.8864720269  
Li 9.7160888407 2.0990808106 20.3831852689  
Li 4.8580444204 4.9128961762 21.9184177696  
Li 9.7160888407 1.8923607050 23.5239054786  
Li 7.2870283853 3.1289600701 25.7846449901  
Li 7.2870880265 5.6995944394 27.5410330531  
Li 7.2870552720 3.6759183860 22.7607924251  
Li 7.2870835442 0.4395624795 24.6579575348  
Li 4.8580444204 4.5574870340 24.9074958060  
Li 9.7160888407 1.4534431588 26.5779264211  
Li 9.7160888407 4.1398575481 27.8390386501  
Li 9.7160888407 1.0140009874 29.5951222028  
Li 7.2870954582 5.2820519117 30.4722293259  
Li 7.2870889494 2.2506235872 31.8559237057  
Li 7.2870226166 2.6895403028 28.8018835751  
Li 4.8580444204 3.7034988133 30.7214844419  
Li 9.7160888407 0.4669012911 32.6188623752  
Li 9.7160888407 3.1719203495 33.4940562872  
Li 7.2871767338 4.9266089631 33.4613239993  
Li 7.2860007798 2.0438572171 34.9966693156  

