&CONTROL
   calculation      = 'relax'
   restart_mode     = 'from_scratch'
   tstress          = .false.
   tprnfor          = .true.
   outdir           = './'
   etot_conv_thr    = 1e-05
   forc_conv_thr    = 0.000388
   disk_io          = 'none'
   pseudo_dir       = '/iridisfs/home/ba3g18/Repos/Pseudopotentials/pslibrary.1.0.0/pbe/PSEUDOPOTENTIALS'
/
&SYSTEM
   ibrav            = 0
   nbnd             = 99
   ecutwfc          = 80
   ecutrho          = 800
   occupations      = 'smearing'
   degauss          = 0.01
   smearing         = 'cold'
   input_dft        = 'PBE'
   ntyp             = 1
   nat              = 44
/
&ELECTRONS
   electron_maxstep = 200
   conv_thr         = 1e-06
   mixing_mode      = 'local-TF'
   mixing_beta      = 0.2
   diagonalization  = 'david'
/
&IONS
   ion_dynamics     = 'bfgs'
   upscale          = 1000000.0
   bfgs_ndim        = 1
/
&CELL
   press_conv_thr   = 0.1
   cell_dofree      = 'all'
/
&FCP
/
&RISM
/
ATOMIC_SPECIES
Li 6.94 Li.pbe-sl-kjpaw_psl.1.0.0.UPF

K_POINTS automatic
7 12 1  0 0 0

CELL_PARAMETERS angstrom
9.71608884000000 0.00000000000000 0.00000000000000
0.00000000000000 5.69656232000000 0.00000000000000
0.00000000000000 0.00000000000000 32.22462315000000

ATOMIC_POSITIONS angstrom
Li 4.8580444100 5.5206410300 23.7661646100  
Li 2.4290304800 4.3188318600 8.4584621800  
Li 2.4290222100 1.0645107800 10.1922638200  
Li 4.8580444100 2.1584728000 8.9410889900  
Li -0.0000000100 4.9398005400 10.3359455800  
Li 4.8580444100 1.8981028000 11.9668650400  
Li 2.4290230000 3.1448090100 14.2711236600  
Li 2.4290194200 5.7146506100 15.9333042800  
Li 2.4290193600 3.6851667300 11.3304015100  
Li 2.4290237800 0.4896375000 13.0242028000  
Li -0.0000000100 4.5659146600 13.3397202400  
Li 4.8580444100 1.4630835500 14.9702297700  
Li 4.8580444100 4.1248680200 16.2913128400  
Li 4.8580444100 0.9981412100 17.9535086700  
Li 2.4290208400 5.2736023600 18.8849032500  
Li 2.4290201800 2.2448563600 20.2577629000  
Li 2.4290250300 2.6798684800 17.2544051200  
Li -0.0000000100 3.6533176500 19.2004325800  
Li 4.8580444100 0.4577811300 20.8942290900  
Li 4.8580444100 3.0784573800 22.0323139000  
Li 2.4290146600 4.8997162100 21.8886695500  
Li 2.4290681800 1.9844767300 23.2835316000  
Li 9.7160888300 5.5207294400 23.7661429800  
Li 7.2870583400 4.3188318700 8.4584621800  
Li 7.2870666100 1.0645107800 10.1922638300  
Li 9.7160888300 2.1584795200 8.9410805700  
Li 4.8580444100 4.9397984900 10.3359594900  
Li 9.7160888300 1.8980975000 11.9668526200  
Li 7.2870658200 3.1448090100 14.2711236600  
Li 7.2870694000 5.7146506100 15.9333042800  
Li 7.2870694500 3.6851667300 11.3304015100  
Li 7.2870650400 0.4896375000 13.0242028000  
Li 4.8580444100 4.5659180600 13.3397243300  
Li 9.7160888300 1.4630853300 14.9702138300  
Li 9.7160888300 4.1248609200 16.2913269900  
Li 9.7160888300 0.9981501100 17.9534963800  
Li 7.2870679800 5.2736023600 18.8849032500  
Li 7.2870686400 2.2448563600 20.2577629000  
Li 7.2870637800 2.6798684800 17.2544051200  
Li 4.8580444100 3.6533204100 19.2003972700  
Li 9.7160888300 0.4577877800 20.8942094000  
Li 9.7160888300 3.0784267700 22.0323865300  
Li 7.2870741600 4.8997162100 21.8886695500  
Li 7.2870206400 1.9844767300 23.2835316000  

