&CONTROL
   calculation      = 'relax'
   restart_mode     = 'from_scratch'
   tstress          = .false.
   tprnfor          = .true.
   outdir           = './'
   etot_conv_thr    = 1e-05
   forc_conv_thr    = 0.000388
   disk_io          = 'none'
   pseudo_dir       = '/iridisfs/home/ba3g18/Repos/Pseudopotentials/pslibrary.1.0.0/pbe/PSEUDOPOTENTIALS'
/
&SYSTEM
   ibrav            = 0
   nbnd             = 54
   ecutwfc          = 80
   ecutrho          = 800
   occupations      = 'smearing'
   degauss          = 0.01
   smearing         = 'cold'
   input_dft        = 'PBE'
   ntyp             = 1
   nat              = 24
/
&ELECTRONS
   electron_maxstep = 200
   conv_thr         = 1e-06
   mixing_mode      = 'local-TF'
   mixing_beta      = 0.2
   diagonalization  = 'david'
/
&IONS
   ion_dynamics     = 'bfgs'
   upscale          = 1000000.0
   bfgs_ndim        = 1
/
&CELL
   press_conv_thr   = 0.1
   cell_dofree      = 'all'
/
&FCP
/
&RISM
/
ATOMIC_SPECIES
Li 6.94 Li.pbe-sl-kjpaw_psl.1.0.0.UPF

K_POINTS automatic
11 7 1  0 0 0

CELL_PARAMETERS angstrom
5.94986480000000 0.00000000000000 0.00000000000000
0.00000000000000 9.71608757000000 0.00000000000000
0.00000000000000 0.00000000000000 33.65751648000000

ATOMIC_POSITIONS angstrom
Li 2.9789169200 4.8580445300 20.1849549100  
Li 0.9876596800 2.4290307800 13.4725783600  
Li 2.2831148300 4.8580445600 14.7381667900  
Li 2.8904969000 2.4290170400 16.1491013700  
Li 1.0760405200 4.8580445800 17.5084220300  
Li 1.6834560400 2.4290285500 18.9193637300  
Li 2.9789243100 9.7160883600 20.1849329200  
Li 0.9876596400 7.2870583800 13.4725784200  
Li 2.2831361000 9.7160883800 14.7381406000  
Li 2.8904967200 7.2870721000 16.1491014100  
Li 1.0761041200 9.7160883300 17.5084093400  
Li 1.6834559700 7.2870605600 18.9193638100  
Li 5.9538495500 4.8580445300 20.1849552700  
Li 3.9625921400 2.4290295500 13.4725768800  
Li 5.2580465200 4.8580445600 14.7381661300  
Li 5.8654289900 2.4290178400 16.1491024000  
Li 4.0509725800 4.8580445800 17.5084216900  
Li 4.6583880400 2.4290292500 18.9193642000  
Li 5.9538564900 9.7160883600 20.1849298100  
Li 3.9625920900 7.2870596100 13.4725769500  
Li 5.2580686000 9.7160883800 14.7381424200  
Li 5.8654288100 7.2870713000 16.1491024400  
Li 4.0510361400 9.7160883300 17.5084115800  
Li 4.6583879700 7.2870598600 18.9193642800  

