&CONTROL
   calculation      = 'relax'
   verbosity        = 'high'
   restart_mode     = 'from_scratch'
   nstep            = 999
   tstress          = .false.
   tprnfor          = .true.
   outdir           = './Li/'
   prefix           = 'Lithium'
   etot_conv_thr    = 1e-05
   forc_conv_thr    = 0.000388
   disk_io          = 'minimal'
   pseudo_dir       = '/work/e89/e89/ba3g18/Repos/Pseudopotentials/Pslibrary'
/
&SYSTEM
   ibrav            = 12
   nbnd             = 153
   tot_charge       = 0.0
   ecutwfc          = 80.0
   ecutrho          = 800
   occupations      = 'smearing'
   degauss          = 0.01
   smearing         = 'cold'
   nspin            = 1
   input_dft        = 'pbe'
   lgcscf           = .true.
   gcscf_mu         = -1.654
   gcscf_conv_thr   = 0.001
   ntyp             = 1
   nat              = 68
   celldm(1)        = 18.360747
   celldm(2)        = 1.0606597768257267
   celldm(3)        = 5.518976
   celldm(4)        = -0.23570234816312513
/
&ELECTRONS
   electron_maxstep = 999
   scf_must_converge = .true.
   conv_thr         = 1e-06
   mixing_mode      = 'local-TF'
   mixing_beta      = 0.2
   diagonalization  = 'david'
   diago_thr_init   = 1e-12
   diago_david_ndim = 4
   diago_full_acc   = .true.
   startingwfc      = 'random'
/
&IONS
   ion_dynamics     = 'bfgs'
   upscale          = 1000000.0
   bfgs_ndim        = 1
/
&CELL
   press_conv_thr   = 0.1
   cell_dofree      = 'all'
/
&FCP
/
&RISM
/
ATOMIC_SPECIES
Li 6.94 Li.pbe-sl-kjpaw_psl.1.0.0.UPF

K_POINTS automatic
7 7 1  0 0 0

ATOMIC_POSITIONS angstrom
Li -0.0025079503 0.0582584984 20.0880153562  
Li 0.0019991572 5.9239350616 33.2006905786  
Li 2.4312856861 7.6014142095 31.7853981726  
Li 2.4316219180 1.8098948185 32.3173612267  
Li 0.0019898145 3.5890031541 30.6840221592  
Li 2.4307476289 5.2935260450 29.1874691582  
Li 2.4284661878 8.7939705509 25.8723457220  
Li 0.0019982227 9.4693249728 29.9299758628  
Li 0.0010560727 1.1761868594 28.2910738982  
Li 2.4288957430 2.9312117480 26.6128669762  
Li -0.0017045343 4.7378407869 24.7986719351  
Li 2.4271122635 6.4036675922 23.2636647443  
Li 0.0002910375 7.1083376485 27.4009178448  
Li 2.4273004811 0.5803133138 24.1203810546  
Li -0.0025371048 2.3842422829 22.3572645475  
Li 2.4268674401 4.0013219186 20.7796624484  
Li -0.0022581088 8.3168427391 21.4905913060  
Li 0.0024959137 0.5612825972 31.2662542795  
Li 0.0019094656 6.5571395436 30.3593205052  
Li 2.4307386394 8.2229824270 28.8226377449  
Li 2.4307479120 2.3652031951 29.5017112416  
Li 0.0005544410 4.1668557700 27.7484866935  
Li 2.4287473426 5.8525690952 26.2198308822  
Li 2.4270243034 9.3716065714 22.9392460081  
Li 0.0001226778 10.0295123851 27.0079380080  
Li -0.0010926606 1.7693941426 25.3300022888  
Li 2.4270344337 3.4914703631 23.6926512292  
Li -0.0022767745 5.3593595177 21.8384233300  
Li 2.4270225726 7.0368235022 20.4244247690  
Li -0.0017245363 7.6672583171 24.4341678989  
Li 2.4264188819 1.1356724472 21.3069365590  
Li 0.0025622401 2.8872335103 33.5373879737  
Li 2.4312793582 4.6438710182 32.1336341812  
Li 0.0021492785 8.9593733370 32.8453040647  
Li 4.8554628570 0.0582123031 20.0880346367  
Li 4.8600709469 5.9239174367 33.2007234328  
Li 7.2893848475 7.6014215073 31.7853955733  
Li 7.2896814321 1.8098918374 32.3174420587  
Li 4.8600039977 3.5890118813 30.6840139068  
Li 7.2887585381 5.2935341037 29.1874265380  
Li 7.2865393587 8.7939860149 25.8723438609  
Li 4.8600385368 9.4693499926 29.9299046240  
Li 4.8591358586 1.1761831094 28.2910811099  
Li 7.2869573818 2.9312245039 26.6129153290  
Li 4.8563207927 4.7378334169 24.7986709962  
Li 7.2851371824 6.4036609536 23.2636222299  
Li 4.8583456146 7.1083374945 27.4009536350  
Li 7.2853313867 0.5803171441 24.1202793277  
Li 4.8555576319 2.3842190507 22.3572848383  
Li 7.2849127663 4.0013794402 20.7797180477  
Li 4.8557823405 8.3168543994 21.4906413670  
Li 4.8605735202 0.5612893860 31.2662533690  
Li 4.8599687261 6.5571774400 30.3593690212  
Li 7.2887981241 8.2229940447 28.8226370190  
Li 7.2887922194 2.3652263924 29.5017727874  
Li 4.8585724662 4.1668429193 27.7484713035  
Li 7.2867796788 5.8525768100 26.2197948405  
Li 7.2851051229 9.3716232199 22.9392262207  
Li 4.8581551088 10.0295168259 27.0078559502  
Li 4.8569867313 1.7693979250 25.3300291100  
Li 7.2850814473 3.4914766009 23.6926937459  
Li 4.8557298689 5.3593424831 21.8384303369  
Li 7.2850262180 7.0368699862 20.4243968272  
Li 4.8563472319 7.6672629280 24.4342114870  
Li 7.2844606263 1.1356846277 21.3068043243  
Li 4.8605654986 2.8872068746 33.5373694484  
Li 7.2893175211 4.6438565882 32.1335921202  
Li 4.8601896460 8.9593284573 32.8452183423  

