&CONTROL
   calculation      = 'scf'
   verbosity        = 'high'
   restart_mode     = 'from_scratch'
   nstep            = 999
   tstress          = .false.
   tprnfor          = .true.
   outdir           = './Li/'
   prefix           = 'Li'
   etot_conv_thr    = 1e-05
   forc_conv_thr    = 0.000388
   disk_io          = 'none'
   pseudo_dir       = '/home/ba3g18/Repos/Pseudopotentials/pslibrary.1.0.0/pbe/PSEUDOPOTENTIALS'
/
&SYSTEM
   ibrav            = 12
   nbnd             = 81
   tot_charge       = 0.0
   ecutwfc          = 80.0
   ecutrho          = 800
   occupations      = 'smearing'
   degauss          = 0.01
   smearing         = 'cold'
   nspin            = 1
   input_dft        = 'pbe'
   ntyp             = 1
   nat              = 36
   celldm(1)        = 18.360746999913715
   celldm(2)        = 0.7905694150502316
   celldm(3)        = 5.127179663779368
   celldm(4)        = 0.31622776601683794
/
&ELECTRONS
   electron_maxstep = 999
   scf_must_converge = .true.
   conv_thr         = 1e-14
   mixing_mode      = 'local-TF'
   mixing_beta      = 0.2
   diagonalization  = 'david'
   startingwfc      = 'random'
/
&IONS
   ion_dynamics     = 'bfgs'
   upscale          = 1000000.0
   bfgs_ndim        = 6
/
&CELL
   press_conv_thr   = 0.1
   cell_dofree      = 'all'
/
&FCP
/
&RISM
/
ATOMIC_SPECIES
Li 6.94 Li.pbe-sl-kjpaw_psl.1.0.0.UPF

K_POINTS automatic
7 9 1  0 0 0

ATOMIC_POSITIONS angstrom
Li 0.0035946901 -0.4718328687 29.8161331155  
Li 2.4251634746 3.9991016081 20.6405382976  
Li 2.4254068300 0.8602539070 22.1470725126  
Li 4.8555353465 4.8657097681 22.6973178391  
Li 4.8567443439 1.5676729168 24.1393124117  
Li 2.4291026969 5.7859581770 25.0159035954  
Li 2.4308820718 2.3418628579 26.2955845458  
Li 4.8615469192 6.4460890078 27.6592756747  
Li 4.8618266867 3.4199358090 28.6305761025  
Li 2.4255199482 6.5086961731 22.1568576350  
Li 2.4271626584 3.3258559772 23.5205490198  
Li 4.8579645134 7.1688275564 24.8002298818  
Li 4.8593446458 4.1000457881 25.6768202869  
Li 4.8605536428 0.8020088431 27.1188146769  
Li 2.4326379810 4.8074650289 27.6690608850  
Li 2.4328808935 1.6686166867 29.1755955728  
Li 4.8544486938 6.1395519684 20.0000000305  
Li 4.8542615203 2.2477819472 21.1855564296  
Li 4.8616413797 -0.4718321275 29.8161328350  
Li 7.2832075989 3.9991013969 20.6405376529  
Li 7.2834513910 0.8602538734 22.1470713074  
Li 9.7135798218 4.8657095975 22.6973179105  
Li 9.7147887813 1.5676730613 24.1393122658  
Li 7.2871471744 5.7859575659 25.0159035417  
Li 7.2889264151 2.3418628254 26.2955835173  
Li 9.7195912247 6.4460895854 27.6592747528  
Li 9.7198721814 3.4199374157 28.6305767789  
Li 7.2835645493 6.5086960495 22.1568575271  
Li 7.2852070093 3.3258558888 23.5205482319  
Li 9.7160087273 7.1688274775 24.8002286421  
Li 9.7173892341 4.1000457431 25.6768203677  
Li 9.7185984383 0.8020093048 27.1188151821  
Li 7.2906821696 4.8074644750 27.6690611867  
Li 7.2909261276 1.6686178253 29.1755945104  
Li 9.7124934965 6.1395509911 20.0000000000  
Li 9.7123065081 2.2477820898 21.1855561740  

