&CONTROL
   calculation      = 'relax'
   verbosity        = 'high'
   restart_mode     = 'from_scratch'
   nstep            = 999
   tstress          = .false.
   tprnfor          = .true.
   outdir           = './Li/'
   prefix           = 'Lithium'
   etot_conv_thr    = 1e-05
   forc_conv_thr    = 0.000388
   disk_io          = 'minimal'
   pseudo_dir       = '/work/e89/e89/ba3g18/Repos/Pseudopotentials/Pslibrary'
/
&SYSTEM
   ibrav            = 8
   nbnd             = 117
   tot_charge       = 0.0
   ecutwfc          = 80.0
   ecutrho          = 800
   occupations      = 'smearing'
   degauss          = 0.01
   smearing         = 'cold'
   nspin            = 1
   input_dft        = 'pbe'
   lgcscf           = .true.
   gcscf_mu         = -1.404
   gcscf_conv_thr   = 0.001
   ntyp             = 1
   nat              = 52
   celldm(1)        = 12.983009
   celldm(2)        = 1.8027759999999997
   celldm(3)        = 7.57536
/
&ELECTRONS
   electron_maxstep = 999
   scf_must_converge = .true.
   conv_thr         = 1e-06
   mixing_mode      = 'local-TF'
   mixing_beta      = 0.2
   diagonalization  = 'david'
   diago_thr_init   = 1e-12
   diago_david_ndim = 4
   diago_full_acc   = .true.
   startingwfc      = 'random'
/
&IONS
   ion_dynamics     = 'bfgs'
   upscale          = 1000000.0
   bfgs_ndim        = 1
/
&CELL
   press_conv_thr   = 0.1
   cell_dofree      = 'all'
/
&FCP
/
&RISM
/
ATOMIC_SPECIES
Li 6.94 Li.pbe-sl-kjpaw_psl.1.0.0.UPF

K_POINTS automatic
10 6 1  0 0 0

ATOMIC_POSITIONS angstrom
Li 0.0000000000 7.9240005253 31.0414295236  
Li 0.0000000000 10.5430967583 29.0986821405  
Li 0.0000000000 2.9706940186 30.1077574389  
Li 0.0000000000 5.7523003806 28.1434689106  
Li 0.0000000000 8.5669795024 26.2818054340  
Li 0.0000000000 11.3892935558 24.3652327429  
Li 0.0000000000 0.9781338232 27.2144014717  
Li 0.0000000000 3.7827206945 25.3023969175  
Li 0.0000000000 6.6269150408 23.3646988164  
Li 0.0000000000 9.3564009882 21.5295340296  
Li 0.0000000000 1.8342959733 22.4755398202  
Li 0.0000000000 4.3381902234 20.5551888173  
Li 0.0000000000 0.5809647809 31.9992463740  
Li 1.7175744546 8.1361736779 28.6618691631  
Li 1.7175953327 10.9731702411 26.7428147128  
Li 1.7175767596 3.3630145051 27.6971805486  
Li 1.7175747724 6.1864166208 25.7493093039  
Li 1.7175728429 9.0054508127 23.9009451289  
Li 1.7175685345 11.8078090289 21.9618321645  
Li 1.7175773113 1.3945057682 24.8269788862  
Li 1.7175720284 4.2265778878 22.9300359306  
Li 1.7175806492 6.8561227003 20.9935538209  
Li 1.7175667246 10.4381892597 31.4753234811  
Li 1.7175779572 1.8106017207 20.0637969315  
Li 1.7175705532 5.4228204245 30.5278412315  
Li 1.7175727178 0.5555646493 29.5754356434  
Li 3.4351562293 7.9240072427 31.0414553330  
Li 3.4351562293 10.5430992194 29.0987156921  
Li 3.4351562293 2.9706882343 30.1077880785  
Li 3.4351562293 5.7522984427 28.1434675353  
Li 3.4351562293 8.5669614393 26.2818209791  
Li 3.4351562293 11.3892915781 24.3652288804  
Li 3.4351562293 0.9781373501 27.2144019102  
Li 3.4351562293 3.7827192286 25.3023954621  
Li 3.4351562293 6.6269149827 23.3646822154  
Li 3.4351562293 9.3563922983 21.5295163369  
Li 3.4351562293 1.8343135268 22.4755328679  
Li 3.4351562293 4.3381940810 20.5551893386  
Li 3.4351562293 0.5809365966 31.9992508053  
Li 5.1527380041 8.1361736779 28.6618691631  
Li 5.1527171259 10.9731702411 26.7428147128  
Li 5.1527356990 3.3630145051 27.6971805486  
Li 5.1527376863 6.1864166208 25.7493093039  
Li 5.1527396158 9.0054508127 23.9009451289  
Li 5.1527439241 11.8078090289 21.9618321645  
Li 5.1527351474 1.3945057682 24.8269788862  
Li 5.1527404303 4.2265778878 22.9300359306  
Li 5.1527318095 6.8561227003 20.9935538209  
Li 5.1527457341 10.4381892597 31.4753234811  
Li 5.1527345015 1.8106017207 20.0637969315  
Li 5.1527419055 5.4228204245 30.5278412315  
Li 5.1527397408 0.5555646493 29.5754356434  

