&CONTROL
   calculation      = 'scf'
   verbosity        = 'high'
   restart_mode     = 'from_scratch'
   nstep            = 999
   tstress          = .false.
   tprnfor          = .true.
   outdir           = './Li/'
   prefix           = 'Lithium'
   etot_conv_thr    = 1e-05
   forc_conv_thr    = 0.000388
   disk_io          = 'minimal'
   pseudo_dir       = '/work/e89/e89/ba3g18/Repos/Pseudopotentials/Pslibrary'
/
&SYSTEM
   ibrav            = 4
   nbnd             = 108
   tot_charge       = 0.0
   ecutwfc          = 80.0
   ecutrho          = 800
   occupations      = 'smearing'
   degauss          = 0.01
   smearing         = 'cold'
   nspin            = 1
   input_dft        = 'pbe'
   lgcscf           = .true.
   gcscf_mu         = -1.404
   gcscf_conv_thr   = 0.001
   ntyp             = 1
   nat              = 48
   celldm(1)        = 18.360747
   celldm(3)        = 5.270332
/
&ELECTRONS
   electron_maxstep = 999
   scf_must_converge = .true.
   conv_thr         = 1e-12
   mixing_mode      = 'local-TF'
   mixing_beta      = 0.2
   diagonalization  = 'david'
   diago_thr_init   = 1e-12
   diago_david_ndim = 4
   diago_full_acc   = .true.
   startingwfc      = 'random'
/
&IONS
   ion_dynamics     = 'bfgs'
   upscale          = 1000000.0
   bfgs_ndim        = 1
/
&CELL
   press_conv_thr   = 0.1
   cell_dofree      = 'all'
/
&FCP
/
&RISM
/
ATOMIC_SPECIES
Li 6.94 Li.pbe-sl-kjpaw_psl.1.0.0.UPF

K_POINTS automatic
7 7 1  0 0 0

ATOMIC_POSITIONS angstrom
Li -0.0000000100 0.0003121003 25.0558313818  
Li 2.4287358860 1.4025275888 21.2444761286  
Li 4.8580444100 2.8047182701 23.1519312768  
Li 0.0000000100 0.0007823981 22.0711492726  
Li 2.4287404978 1.4024536944 24.1237342188  
Li 4.8580445000 2.8054097410 20.2108761376  
Li 0.0000000000 -0.0006389723 30.9961129363  
Li 2.4293158476 1.4023276449 27.0832993446  
Li 4.8580444100 2.8040075031 29.1359786850  
Li -0.0000000100 0.0000994444 28.0551190421  
Li 2.4293307509 1.4022653710 29.9625084064  
Li 4.8580444200 2.8044778046 26.1512486715  
Li 2.4281768335 4.2073073406 25.0568488226  
Li 4.8580443900 5.6099766699 21.2453303230  
Li 7.2870831696 7.0120312221 23.1514452654  
Li 2.4279371693 4.2074919766 22.0719558699  
Li 4.8580444100 5.6097504062 24.1238641910  
Li 7.2861780034 7.0122613215 20.2103729416  
Li 2.4298866163 4.2069558029 30.9966040860  
Li 4.8580444000 5.6094166347 27.0831413400  
Li 7.2881615282 7.0116964765 29.1350025467  
Li 2.4289992556 4.2071073266 28.0556023708  
Li 4.8580444000 5.6092134018 29.9616141338  
Li 7.2879023651 7.0118679483 26.1501637138  
Li 4.8580444000 -0.0003481497 25.0574476785  
Li 7.2873529340 1.4025275688 21.2444762786  
Li 9.7160888200 2.8049807847 23.1511959286  
Li 4.8580443900 -0.0006915745 22.0724889040  
Li 7.2873483222 1.4024536944 24.1237342988  
Li 9.7160887400 2.8042278700 20.2102137111  
Li 4.8580444000 0.0004848363 30.9967392266  
Li 7.2867729724 1.4023276449 27.0832993946  
Li 9.7160888300 2.8054455489 29.1346404575  
Li 4.8580444000 -0.0001313335 28.0558497911  
Li 7.2867580691 1.4022653610 29.9625084464  
Li 9.7160888200 2.8051235060 26.1496518392  
Li 7.2879119766 4.2073073506 25.0568488226  
Li 9.7160888400 5.6094907256 21.2428642232  
Li 12.1450944804 7.0120312321 23.1514452754  
Li 7.2881516407 4.2074919966 22.0719558799  
Li 9.7160888300 5.6096402625 24.1232497838  
Li 12.1459996466 7.0122614315 20.2103729516  
Li 7.2862021937 4.2069558129 30.9966040760  
Li 9.7160888300 5.6095747191 27.0837025912  
Li 12.1440161219 7.0116964765 29.1350025467  
Li 7.2870895644 4.2071073266 28.0556023608  
Li 9.7160888300 5.6096833324 29.9639912915  
Li 12.1442752949 7.0118679583 26.1501637138  

