&CONTROL
   calculation      = 'scf'
   verbosity        = 'high'
   restart_mode     = 'from_scratch'
   nstep            = 999
   tstress          = .false.
   tprnfor          = .true.
   outdir           = './Li/'
   prefix           = 'Lithium'
   etot_conv_thr    = 1e-05
   forc_conv_thr    = 0.000388
   disk_io          = 'minimal'
   pseudo_dir       = '/work/e89/e89/ba3g18/Repos/Pseudopotentials/Pslibrary'
/
&SYSTEM
   ibrav            = 12
   nbnd             = 81
   tot_charge       = 0.0
   ecutwfc          = 80.0
   ecutrho          = 800
   occupations      = 'smearing'
   degauss          = 0.01
   smearing         = 'cold'
   nspin            = 1
   input_dft        = 'pbe'
   lgcscf           = .true.
   gcscf_mu         = -5.404
   gcscf_conv_thr   = 0.001
   ntyp             = 1
   nat              = 36
   celldm(1)        = 18.360747
   celldm(2)        = 0.7905694150420948
   celldm(3)        = 5.12718
   celldm(4)        = 0.31622776601683794
/
&ELECTRONS
   electron_maxstep = 999
   scf_must_converge = .true.
   conv_thr         = 1e-16
   mixing_mode      = 'local-TF'
   mixing_beta      = 0.2
   diagonalization  = 'david'
   diago_thr_init   = 1e-12
   diago_david_ndim = 4
   diago_full_acc   = .true.
   startingwfc      = 'random'
/
&IONS
   ion_dynamics     = 'bfgs'
   upscale          = 1000000.0
   bfgs_ndim        = 1
/
&CELL
   press_conv_thr   = 0.1
   cell_dofree      = 'all'
/
&FCP
/
&RISM
/
ATOMIC_SPECIES
Li 6.94 Li.pbe-sl-kjpaw_psl.1.0.0.UPF

K_POINTS automatic
7 9 1  0 0 0

ATOMIC_POSITIONS angstrom
Li 0.0009968793 -1.1845325110 30.3935426734  
Li 2.4287053350 3.9506624852 20.1721376984  
Li 2.4282519272 0.6704885162 22.3321993353  
Li 4.8575104006 4.8914903390 22.5437681341  
Li 4.8579631596 1.5294746316 24.2051753489  
Li 2.4295088377 5.8077896850 24.8108885912  
Li 2.4293024527 2.3616014861 26.4636195446  
Li 4.8587168999 6.5404510940 27.8099833015  
Li 4.8588010488 3.5691830152 28.5787864131  
Li 2.4283492964 6.4143402192 22.0061199958  
Li 2.4287533368 3.3061283555 23.3523855506  
Li 4.8575548295 7.1469384039 25.0052124443  
Li 4.8581245397 4.1382341085 25.6109358784  
Li 4.8585837261 0.7762446518 27.2723486704  
Li 2.4298110599 4.9972199786 27.4839301033  
Li 2.4294189339 1.7170231742 29.6439138493  
Li 4.8573422901 6.8522755202 19.4226247832  
Li 4.8573098664 2.0985410164 21.2373258923  
Li 4.8587241193 -1.1845790564 30.3935484411  
Li 7.2866751953 3.9506864793 20.1722395795  
Li 7.2862776404 0.6705018039 22.3322129139  
Li 9.7155106017 4.8915108138 22.5438047591  
Li 9.7160301580 1.5294793512 24.2051486564  
Li 7.2875579579 5.8078151123 24.8108924237  
Li 7.2873371917 2.3615994711 26.4637221896  
Li 9.7167663765 6.5404665345 27.8100153638  
Li 9.7167669530 3.5691203101 28.5788039332  
Li 7.2863905749 6.4143560784 22.0061398031  
Li 7.2867853115 3.3061257500 23.3524777294  
Li 9.7156019350 7.1469811500 25.0052571503  
Li 9.7161494476 4.1382273454 25.6109737092  
Li 9.7166618402 0.7762239315 27.2723162995  
Li 7.2878367551 4.9972821549 27.4839263245  
Li 7.2873788891 1.7170211460 29.6440488537  
Li 9.7151147668 6.8522384860 19.4226451367  
Li 9.7153888211 2.0985931768 21.2373124827  

