&CONTROL
   calculation      = 'relax'
   verbosity        = 'high'
   restart_mode     = 'from_scratch'
   nstep            = 999
   tstress          = .false.
   tprnfor          = .true.
   outdir           = './Li/'
   prefix           = 'Lithium'
   etot_conv_thr    = 1e-05
   forc_conv_thr    = 0.000388
   disk_io          = 'minimal'
   pseudo_dir       = '/work/e89/e89/ba3g18/Repos/Pseudopotentials/Pslibrary'
/
&SYSTEM
   ibrav            = 12
   nbnd             = 153
   tot_charge       = 0.0
   ecutwfc          = 80.0
   ecutrho          = 800
   occupations      = 'smearing'
   degauss          = 0.01
   smearing         = 'cold'
   nspin            = 1
   input_dft        = 'pbe'
   lgcscf           = .true.
   gcscf_mu         = -1.404
   gcscf_conv_thr   = 0.001
   ntyp             = 1
   nat              = 68
   celldm(1)        = 18.360747
   celldm(2)        = 1.0606597768257267
   celldm(3)        = 5.518976
   celldm(4)        = -0.23570234816312513
/
&ELECTRONS
   electron_maxstep = 999
   scf_must_converge = .true.
   conv_thr         = 1e-06
   mixing_mode      = 'local-TF'
   mixing_beta      = 0.2
   diagonalization  = 'david'
   diago_thr_init   = 1e-12
   diago_david_ndim = 4
   diago_full_acc   = .true.
   startingwfc      = 'random'
/
&IONS
   ion_dynamics     = 'bfgs'
   upscale          = 1000000.0
   bfgs_ndim        = 1
/
&CELL
   press_conv_thr   = 0.1
   cell_dofree      = 'all'
/
&FCP
/
&RISM
/
ATOMIC_SPECIES
Li 6.94 Li.pbe-sl-kjpaw_psl.1.0.0.UPF

K_POINTS automatic
7 7 1  0 0 0

ATOMIC_POSITIONS angstrom
Li -0.0028216032 0.1090418439 20.0234823996  
Li 0.0019100652 5.9191648069 33.2264013849  
Li 2.4314315574 7.6012363832 31.7691608370  
Li 2.4321862304 1.8260427516 32.2242685771  
Li 0.0018277303 3.5504011981 30.7341553581  
Li 2.4306783200 5.3109293207 29.1593127402  
Li 2.4284434146 8.8136312169 25.8317796158  
Li 0.0023575418 9.4520154790 29.9771878921  
Li 0.0009877528 1.1705046991 28.2988657772  
Li 2.4287905096 2.9430527800 26.5609094050  
Li -0.0015874121 4.7250230887 24.8385050364  
Li 2.4271840974 6.4237854372 23.2529030817  
Li 0.0004541936 7.0934048109 27.4179417418  
Li 2.4273752432 0.5614541654 24.1954217271  
Li -0.0025591383 2.4053498335 22.3405777815  
Li 2.4266508141 3.9751526325 20.7159827634  
Li -0.0022594519 8.2910722158 21.5303673714  
Li 0.0025156211 0.5401310003 31.2824074602  
Li 0.0018541909 6.5371307790 30.3698077184  
Li 2.4306127204 8.2356349538 28.7849549922  
Li 2.4306610941 2.3842683161 29.4275427554  
Li 0.0005707960 4.1471035064 27.7917589760  
Li 2.4285727400 5.8674335905 26.2054582352  
Li 2.4271892402 9.4104833035 22.8885103908  
Li 0.0002205099 10.0178125798 27.0624541193  
Li -0.0010399266 1.7749706655 25.3248330110  
Li 2.4266601425 3.5086860945 23.6455345697  
Li -0.0024201645 5.3593689406 21.8536964044  
Li 2.4271076749 7.0416327293 20.3954922011  
Li -0.0016472003 7.6498316562 24.4640156028  
Li 2.4258636702 1.1193709438 21.3982626600  
Li 0.0029727067 2.8369017202 33.5983821615  
Li 2.4312767777 4.6694578882 32.0922056911  
Li 0.0023551816 8.9854311488 32.9061925458  
Li 4.8550541223 0.1089551229 20.0234991271  
Li 4.8599732933 5.9191266025 33.2264605047  
Li 7.2895501380 7.6012497939 31.7691610490  
Li 7.2902412248 1.8260340213 32.2243948302  
Li 4.8598549277 3.5503996321 30.7341652555  
Li 7.2886792862 5.3109284880 29.1592856507  
Li 7.2865293441 8.8136621300 25.8317697304  
Li 4.8604017989 9.4520466547 29.9770882207  
Li 4.8590808176 1.1704986304 28.2988929530  
Li 7.2868549219 2.9430730112 26.5609739909  
Li 4.8564347091 4.7250186434 24.8385023532  
Li 7.2851914801 6.4237816494 23.2528481255  
Li 4.8585064669 7.0934099118 27.4179871031  
Li 7.2854084806 0.5614791242 24.1952647033  
Li 4.8555505401 2.4053308083 22.3405990871  
Li 7.2847509075 3.9752561207 20.7160747194  
Li 4.8557830852 8.2910972781 21.5303914246  
Li 4.8606102284 0.5401276650 31.2824192416  
Li 4.8599111071 6.5371685944 30.3698779259  
Li 7.2886844192 8.2356471104 28.7849434326  
Li 7.2887128837 2.3842790457 29.4276396611  
Li 4.8585886841 4.1470809298 27.7917521011  
Li 7.2866004806 5.8674390333 26.2054217065  
Li 7.2852538056 9.4105038903 22.8884808409  
Li 4.8582459106 10.0178120512 27.0623290176  
Li 4.8570486628 1.7749617230 25.3248669745  
Li 7.2847096042 3.5087047238 23.6456036391  
Li 4.8555731738 5.3593438308 21.8536700047  
Li 7.2851242140 7.0416956906 20.3954524650  
Li 4.8564252100 7.6498584645 24.4640583266  
Li 7.2838925503 1.1193755505 21.3980512170  
Li 4.8609084139 2.8368460144 33.5983900197  
Li 7.2893160378 4.6694494599 32.0921934771  
Li 4.8603821003 8.9853541584 32.9060665497  

