&CONTROL
   calculation      = 'scf'
   verbosity        = 'high'
   restart_mode     = 'from_scratch'
   nstep            = 999
   tstress          = .false.
   tprnfor          = .true.
   outdir           = './Li/'
   prefix           = 'Lithium'
   etot_conv_thr    = 1e-05
   forc_conv_thr    = 0.000388
   disk_io          = 'minimal'
   pseudo_dir       = '/home/mmm1182/Repos/Pseudopotentials/pslibrary'
/
&SYSTEM
   ibrav            = 8
   nbnd             = 99
   tot_charge       = 0.0
   ecutwfc          = 80.0
   ecutrho          = 800
   occupations      = 'smearing'
   degauss          = 0.01
   smearing         = 'cold'
   nspin            = 1
   input_dft        = 'pbe'
   lgcscf           = .true.
   gcscf_mu         = -4.404
   gcscf_conv_thr   = 0.001
   ntyp             = 1
   nat              = 44
   celldm(1)        = 18.360747
   celldm(2)        = 0.586302
   celldm(3)        = 5.699811
/
&ELECTRONS
   electron_maxstep = 999
   scf_must_converge = .true.
   conv_thr         = 1e-14
   mixing_mode      = 'local-TF'
   mixing_beta      = 0.2
   diagonalization  = 'david'
   diago_thr_init   = 1e-12
   diago_david_ndim = 4
   diago_full_acc   = .true.
   startingwfc      = 'random'
/
&IONS
   ion_dynamics     = 'bfgs'
   upscale          = 1000000.0
   bfgs_ndim        = 1
/
&CELL
   press_conv_thr   = 0.1
   cell_dofree      = 'all'
/
&FCP
/
&RISM
/
ATOMIC_SPECIES
Li 6.94 Li.pbe-sl-kjpaw_psl.1.0.0.UPF

K_POINTS automatic
7 12 1  0 0 0

ATOMIC_POSITIONS angstrom
Li 4.8580444204 5.1599605455 35.9987813520  
Li 2.4290687934 4.6781830510 19.3812544927  
Li 2.4290655774 0.9345242469 21.8806096864  
Li 4.8580444204 2.1379724413 20.3660470229  
Li -0.0000000000 4.9171941727 21.9100529745  
Li 4.8580444204 1.8848658666 23.5116802009  
Li 2.4290791175 3.1246073279 25.7859388824  
Li 2.4289920831 5.7037078420 27.5544681694  
Li 2.4290371563 3.6598764864 22.7401241495  
Li 2.4289990689 0.4289727791 24.6603141043  
Li -0.0000000000 4.5463845547 24.8889298916  
Li 4.8580444204 1.4423409724 26.5690144187  
Li 4.8580444204 4.1358710095 27.8250729250  
Li 4.8580444204 1.0183182911 29.5940001961  
Li 2.4289881354 5.2930999385 30.4911298397  
Li 2.4290119525 2.2580972277 31.8681883228  
Li 2.4290903836 2.7005718206 28.8108788593  
Li -0.0000000000 3.7137609826 30.7200882810  
Li 4.8580444204 0.4833635944 32.6399772630  
Li 4.8580444204 3.2091941288 33.4982561361  
Li 2.4288819591 4.9223763531 33.4699422748  
Li 2.4305678918 2.0049839580 35.0137424657  
Li 9.7160888407 5.1624789751 35.9985112088  
Li 7.2870200473 4.6781830510 19.3812544927  
Li 7.2870232634 0.9345242469 21.8806096864  
Li 9.7160888407 2.1379806388 20.3661006811  
Li 4.8580444204 4.9171123150 21.9098332168  
Li 9.7160888407 1.8849287477 23.5115993630  
Li 7.2870097232 3.1246073279 25.7859388824  
Li 7.2870967577 5.7037078420 27.5544681694  
Li 7.2870516844 3.6598764864 22.7401241495  
Li 7.2870897718 0.4289727791 24.6603141043  
Li 4.8580444204 4.5464708129 24.8885640518  
Li 9.7160888407 1.4424238384 26.5688363212  
Li 9.7160888407 4.1357046013 27.8256497115  
Li 9.7160888407 1.0183378870 29.5937224705  
Li 7.2871007053 5.2930999385 30.4911298397  
Li 7.2870768883 2.2580972277 31.8681883228  
Li 7.2869984571 2.7005718206 28.8108788593  
Li 4.8580444204 3.7141686316 30.7189941489  
Li 9.7160888407 0.4828364090 32.6394743625  
Li 9.7160888407 3.2078239540 33.5000689592  
Li 7.2872068817 4.9223763531 33.4699422748  
Li 7.2855209489 2.0049839580 35.0137424657  

