&CONTROL
   calculation      = 'relax'
   restart_mode     = 'from_scratch'
   tstress          = .false.
   tprnfor          = .true.
   outdir           = './'
   etot_conv_thr    = 1e-05
   forc_conv_thr    = 0.000388
   disk_io          = 'none'
   pseudo_dir       = '/iridisfs/home/ba3g18/Repos/Pseudopotentials/pslibrary.1.0.0/pbe/PSEUDOPOTENTIALS'
/
&SYSTEM
   ibrav            = 0
   nbnd             = 99
   ecutwfc          = 80
   ecutrho          = 800
   occupations      = 'smearing'
   degauss          = 0.01
   smearing         = 'cold'
   input_dft        = 'PBE'
   ntyp             = 1
   nat              = 44
/
&ELECTRONS
   electron_maxstep = 200
   conv_thr         = 1e-06
   mixing_mode      = 'local-TF'
   mixing_beta      = 0.2
   diagonalization  = 'david'
/
&IONS
   ion_dynamics     = 'bfgs'
   upscale          = 1000000.0
   bfgs_ndim        = 1
/
&CELL
   press_conv_thr   = 0.1
   cell_dofree      = 'all'
/
&FCP
/
&RISM
/
ATOMIC_SPECIES
Li 6.94 Li.pbe-sl-kjpaw_psl.1.0.0.UPF

K_POINTS automatic
7 8 1  0 0 0

CELL_PARAMETERS angstrom
9.71608884000000 0.00000000000000 0.00000000000000
-2.42902221000000 8.05615336000000 0.00000000000000
0.00000000000000 0.00000000000000 34.17937392000000

ATOMIC_POSITIONS angstrom
Li -2.4322438600 7.4719491800 11.6566513700  
Li 2.4279493200 2.5051706000 22.1701547000  
Li -0.0010758500 4.4431477000 21.0358141300  
Li 2.4329064900 6.5752040300 19.8039284600  
Li 2.4264797600 0.7888589600 18.8882820200  
Li 0.0001177100 2.9244193500 17.9393388900  
Li 2.4315153200 5.0861950000 16.8971273500  
Li -0.0027955900 7.3162023800 15.8111057900  
Li -0.0000596100 1.4755877400 14.6425661400  
Li 2.4300382100 3.7542259700 13.5946406200  
Li -0.0003898200 5.7184134600 12.7591590100  
Li -0.0010149900 1.3724214100 20.5847285700  
Li 2.4290814200 3.6510556300 19.5368044400  
Li 0.0027949900 5.8665965200 18.3682672400  
Li 2.4265287000 8.0966052000 17.2822471100  
Li 2.4289036400 2.2022271700 16.2400329700  
Li 0.0025433100 4.3377854100 15.2910894700  
Li 2.4251393800 6.6075941600 14.3754432900  
Li 2.4300993800 0.6834987800 13.1435570600  
Li 0.0010716300 2.6214768700 12.0092174900  
Li 2.4322439800 5.7108531300 22.5227215500  
Li 0.0003869300 7.4643864300 21.4202140700  
Li 2.4257989000 7.4719387100 11.6566486100  
Li 7.2859892900 2.5051700900 22.1701535000  
Li 4.8569685000 4.4431481300 21.0358147900  
Li 7.2909500400 6.5752060800 19.8039281800  
Li 7.2845257500 0.7888591600 18.8882849300  
Li 4.8581616000 2.9244202500 17.9393368000  
Li 7.2895608500 5.0861932800 16.8971257400  
Li 4.8552489900 7.3162027800 15.8111066400  
Li 4.8579864700 1.4755909200 14.6425700600  
Li 7.2880813700 3.7542217000 13.5946490500  
Li 4.8576602700 5.7184100100 12.7591539000  
Li 4.8570287300 1.3724208000 20.5847254000  
Li 7.2871251300 3.6510565200 19.5368041900  
Li 4.8608402900 5.8665970700 18.3682667800  
Li 7.2845727300 8.0966050700 17.2822458000  
Li 7.2869503800 2.2022251400 16.2400364900  
Li 4.8605842300 4.3377883900 15.2910889700  
Li 7.2831816600 6.6075931700 14.3754445200  
Li 7.2881408400 0.6834947100 13.1435571700  
Li 4.8591236700 2.6214699800 12.0092164300  
Li 7.2902897300 5.7108529100 22.5227202300  
Li 4.8584312900 7.4643864100 21.4202164300  

