&CONTROL
   calculation      = 'relax'
   verbosity        = 'high'
   restart_mode     = 'from_scratch'
   nstep            = 999
   tstress          = .false.
   tprnfor          = .true.
   outdir           = './Li/'
   prefix           = 'Lithium'
   etot_conv_thr    = 1e-05
   forc_conv_thr    = 0.000388
   disk_io          = 'minimal'
   pseudo_dir       = '/home/mmm1182/Repos/Pseudopotentials/pslibrary'
/
&SYSTEM
   ibrav            = 12
   nbnd             = 81
   tot_charge       = 0.0
   ecutwfc          = 80.0
   ecutrho          = 800
   occupations      = 'smearing'
   degauss          = 0.01
   smearing         = 'cold'
   nspin            = 1
   input_dft        = 'pbe'
   lgcscf           = .true.
   gcscf_mu         = -3.904
   gcscf_conv_thr   = 0.001
   ntyp             = 1
   nat              = 36
   celldm(1)        = 18.360747
   celldm(2)        = 0.7905694150420948
   celldm(3)        = 5.12718
   celldm(4)        = 0.31622776601683794
/
&ELECTRONS
   electron_maxstep = 999
   scf_must_converge = .true.
   conv_thr         = 1e-06
   mixing_mode      = 'local-TF'
   mixing_beta      = 0.2
   diagonalization  = 'david'
   diago_thr_init   = 1e-12
   diago_david_ndim = 4
   diago_full_acc   = .true.
   startingwfc      = 'random'
/
&IONS
   ion_dynamics     = 'bfgs'
   upscale          = 1000000.0
   bfgs_ndim        = 1
/
&CELL
   press_conv_thr   = 0.1
   cell_dofree      = 'all'
/
&FCP
/
&RISM
/
ATOMIC_SPECIES
Li 6.94 Li.pbe-sl-kjpaw_psl.1.0.0.UPF

K_POINTS automatic
7 9 1  0 0 0

ATOMIC_POSITIONS angstrom
Li 0.0019102145 -0.8984079147 30.0458197776  
Li 2.4274862219 3.9951637996 20.4308138261  
Li 2.4278441902 0.7529650516 22.3200411119  
Li 4.8565102916 4.8780027109 22.5590262219  
Li 4.8571153810 1.5467038973 24.1588024988  
Li 2.4295921444 5.8220531561 24.8659410294  
Li 2.4301005816 2.3367248602 26.3701947000  
Li 4.8598021929 6.4952046854 27.7561104619  
Li 4.8601366201 3.5972391404 28.7048901726  
Li 2.4272759252 6.4595928841 22.0599616369  
Li 2.4279576805 3.3309961017 23.4458021713  
Li 4.8574227026 7.1326490076 24.9501348439  
Li 4.8589519368 4.1210082013 25.6573114191  
Li 4.8596021539 0.7897363394 27.2570685589  
Li 2.4301994806 4.9146906353 27.4960906900  
Li 2.4306251308 1.6726281534 29.3851975673  
Li 4.8562146010 6.5661128050 19.7703260440  
Li 4.8559986343 2.0705042119 21.1112169486  
Li 4.8597921931 -0.8984642116 30.0457959857  
Li 7.2855141487 3.9951526211 20.4309203492  
Li 7.2859002490 0.7530168303 22.3200385608  
Li 9.7145501907 4.8780006595 22.5590929267  
Li 9.7152018233 1.5467392862 24.1587834422  
Li 7.2877185823 5.8221085079 24.8659823196  
Li 7.2881703094 2.3367392358 26.3702846193  
Li 9.7178270753 6.4951544202 27.7561076877  
Li 9.7180739179 3.5971906161 28.7050009754  
Li 7.2853269420 6.4595926485 22.0600572756  
Li 7.2859603672 3.3310088636 23.4459454596  
Li 9.7154807653 7.1327590629 24.9502131717  
Li 9.7170024872 4.1209955583 25.6573644075  
Li 9.7176090339 0.7897165694 27.2570893219  
Li 7.2882410228 4.9147431781 27.4961028923  
Li 7.2885496374 1.6724847450 29.3852806001  
Li 9.7142303749 6.5661476539 19.7703598444  
Li 9.7140641503 2.0705502366 21.1112144378  

