&CONTROL
   calculation      = 'relax'
   verbosity        = 'high'
   restart_mode     = 'from_scratch'
   nstep            = 999
   tstress          = .false.
   tprnfor          = .true.
   outdir           = './Li/'
   prefix           = 'Lithium'
   etot_conv_thr    = 1e-05
   forc_conv_thr    = 0.000388
   disk_io          = 'minimal'
   pseudo_dir       = '/work/e89/e89/ba3g18/Repos/Pseudopotentials/Pslibrary'
/
&SYSTEM
   ibrav            = 12
   nbnd             = 81
   tot_charge       = 0.0
   ecutwfc          = 80.0
   ecutrho          = 800
   occupations      = 'smearing'
   degauss          = 0.01
   smearing         = 'cold'
   nspin            = 1
   input_dft        = 'pbe'
   lgcscf           = .true.
   gcscf_mu         = -1.904
   gcscf_conv_thr   = 0.001
   ntyp             = 1
   nat              = 36
   celldm(1)        = 18.360747
   celldm(2)        = 0.7905694150420948
   celldm(3)        = 5.12718
   celldm(4)        = 0.31622776601683794
/
&ELECTRONS
   electron_maxstep = 999
   scf_must_converge = .true.
   conv_thr         = 1e-06
   mixing_mode      = 'local-TF'
   mixing_beta      = 0.2
   diagonalization  = 'david'
   diago_thr_init   = 1e-12
   diago_david_ndim = 4
   diago_full_acc   = .true.
   startingwfc      = 'random'
/
&IONS
   ion_dynamics     = 'bfgs'
   upscale          = 1000000.0
   bfgs_ndim        = 1
/
&CELL
   press_conv_thr   = 0.1
   cell_dofree      = 'all'
/
&FCP
/
&RISM
/
ATOMIC_SPECIES
Li 6.94 Li.pbe-sl-kjpaw_psl.1.0.0.UPF

K_POINTS automatic
7 9 1  0 0 0

ATOMIC_POSITIONS angstrom
Li 0.0006295097 -0.2840817482 29.7103926232  
Li 2.4284869454 4.0075511141 20.7144665211  
Li 2.4285348048 0.8948058163 22.0177725672  
Li 4.8577457567 4.8515824561 22.8019610532  
Li 4.8577076158 1.5888188179 24.1139553070  
Li 2.4289440250 5.7477135526 25.0943959402  
Li 2.4293866085 2.3722441440 26.2754784845  
Li 4.8585424917 6.4304227273 27.6078953725  
Li 4.8587249573 3.3256192342 28.5996446950  
Li 2.4285234413 6.5242349938 22.2082949379  
Li 2.4286534581 3.2955978606 23.5407708011  
Li 4.8581150015 7.2071592546 24.7220203310  
Li 4.8583825355 4.0787879236 25.7020674125  
Li 4.8583465610 0.8162347177 27.0141767759  
Li 2.4295071003 4.7728333407 27.7984031064  
Li 2.4295891460 1.6602011466 29.1016206510  
Li 4.8574694743 5.9516870515 20.1054880813  
Li 4.8573784030 2.3422807303 21.2162165099  
Li 4.8586000444 -0.2841605274 29.7104394986  
Li 7.2865203159 4.0075324430 20.7145149576  
Li 7.2865768538 0.8947971422 22.0177991148  
Li 9.7157743901 4.8516049523 22.8019906680  
Li 9.7157638113 1.5888212101 24.1139561349  
Li 7.2869916015 5.7477273189 25.0943799405  
Li 7.2874319130 2.3722308484 26.2755317803  
Li 9.7165959505 6.4304185295 27.6079220764  
Li 9.7167381407 3.3255556725 28.5996276516  
Li 7.2865603711 6.5242424445 22.2082904567  
Li 7.2867040869 3.2955884296 23.5408293530  
Li 9.7161731785 7.2071545647 24.7220388213  
Li 9.7164112193 4.0787913642 25.7020725456  
Li 9.7163975582 0.8162226390 27.0141416831  
Li 7.2875603890 4.7728388130 27.7983716982  
Li 7.2875829084 1.6601605338 29.1016773519  
Li 9.7154815624 5.9516692815 20.1055302594  
Li 9.7154272238 2.3423154145 21.2162487948  

