&CONTROL
   calculation      = 'relax'
   restart_mode     = 'from_scratch'
   tstress          = .false.
   tprnfor          = .true.
   outdir           = './'
   etot_conv_thr    = 1e-05
   forc_conv_thr    = 0.000388
   disk_io          = 'none'
   pseudo_dir       = '/iridisfs/home/ba3g18/Repos/Pseudopotentials/pslibrary.1.0.0/pbe/PSEUDOPOTENTIALS'
/
&SYSTEM
   ibrav            = 0
   nbnd             = 108
   ecutwfc          = 80
   ecutrho          = 800
   occupations      = 'smearing'
   degauss          = 0.01
   smearing         = 'cold'
   input_dft        = 'PBE'
   ntyp             = 1
   nat              = 48
/
&ELECTRONS
   electron_maxstep = 200
   conv_thr         = 1e-06
   mixing_mode      = 'local-TF'
   mixing_beta      = 0.2
   diagonalization  = 'david'
/
&IONS
   ion_dynamics     = 'bfgs'
   upscale          = 1000000.0
   bfgs_ndim        = 1
/
&CELL
   press_conv_thr   = 0.1
   cell_dofree      = 'all'
/
&FCP
/
&RISM
/
ATOMIC_SPECIES
Li 6.94 Li.pbe-sl-kjpaw_psl.1.0.0.UPF

K_POINTS automatic
7 7 1  0 0 0

CELL_PARAMETERS angstrom
9.71608884000000 0.00000000000000 0.00000000000000
4.85804442000000 8.41437584000000 0.00000000000000
0.00000000000000 0.00000000000000 41.64905444000000

ATOMIC_POSITIONS angstrom
Li -0.0000000100 0.0000094700 20.2646326000  
Li 2.4290144700 1.4025915400 16.4964940600  
Li 4.8580444100 2.8048580900 18.2923306600  
Li 0.0000000100 0.0001379900 17.1939936700  
Li 2.4290206200 1.4024304700 19.3640320700  
Li 4.8580445000 2.8050884200 15.2868237300  
Li -0.0000000000 -0.0002947700 26.3622332500  
Li 2.4290217700 1.4023636800 22.2850204600  
Li 4.8580444100 2.8046568000 24.4550633800  
Li -0.0000000100 -0.0000630800 23.3567257500  
Li 2.4290285200 1.4022032200 25.1525592700  
Li 4.8580444200 2.8047855200 21.3844251400  
Li 2.4290237800 4.2071966700 20.2646259000  
Li 4.8580443900 5.6097922800 16.4964928700  
Li 7.2870696600 7.0120444700 18.2923320200  
Li 2.4290287000 4.2073226000 17.1939882400  
Li 4.8580444100 5.6096210600 19.3640312200  
Li 7.2870968800 7.0122606000 15.2868215900  
Li 2.4289965100 4.2069092400 26.3622331600  
Li 4.8580444000 5.6095522100 22.2850196600  
Li 7.2870615200 7.0118479800 24.4550651300  
Li 2.4290212600 4.2071255600 23.3567224000  
Li 4.8580444000 5.6093799800 25.1525582500  
Li 7.2870679500 7.0119728900 21.3844275200  
Li 4.8580444000 0.0000112300 20.2646258500  
Li 7.2870743500 1.4025915200 16.4964942100  
Li 9.7160888200 2.8048615400 18.2923319100  
Li 4.8580443900 0.0001456500 17.1939882100  
Li 7.2870682000 1.4024304700 19.3640321500  
Li 9.7160887400 2.8051235700 15.2868214600  
Li 4.8580444000 -0.0003245400 26.3622331000  
Li 7.2870670500 1.4023636800 22.2850205100  
Li 9.7160888300 2.8046508500 24.4550651500  
Li 4.8580444000 -0.0000641300 23.3567223700  
Li 7.2870603000 1.4022032100 25.1525593100  
Li 9.7160888200 2.8047871300 21.3844274600  
Li 7.2870650300 4.2071966800 20.2646259000  
Li 9.7160888400 5.6097835400 16.4965368600  
Li 12.1451079900 7.0120444800 18.2923320300  
Li 7.2870601100 4.2073226200 17.1939882500  
Li 9.7160888300 5.6096191600 19.3640496300  
Li 12.1450807700 7.0122607100 15.2868216000  
Li 7.2870923000 4.2069092500 26.3622331500  
Li 9.7160888300 5.6095517600 22.2850139200  
Li 12.1451161300 7.0118479800 24.4550651300  
Li 7.2870675600 4.2071255600 23.3567223900  
Li 9.7160888300 5.6093871900 25.1525260100  
Li 12.1451097100 7.0119729000 21.3844275200  

