&CONTROL
   calculation      = 'relax'
   verbosity        = 'high'
   restart_mode     = 'from_scratch'
   nstep            = 999
   tstress          = .false.
   tprnfor          = .true.
   outdir           = './Li/'
   prefix           = 'Lithium'
   etot_conv_thr    = 1e-05
   forc_conv_thr    = 0.000388
   disk_io          = 'minimal'
   pseudo_dir       = '/work/e89/e89/ba3g18/Repos/Pseudopotentials/Pslibrary'
/
&SYSTEM
   ibrav            = 8
   nbnd             = 117
   tot_charge       = 0.0
   ecutwfc          = 80.0
   ecutrho          = 800
   occupations      = 'smearing'
   degauss          = 0.01
   smearing         = 'cold'
   nspin            = 1
   input_dft        = 'pbe'
   lgcscf           = .true.
   gcscf_mu         = -2.904
   gcscf_conv_thr   = 0.001
   ntyp             = 1
   nat              = 52
   celldm(1)        = 12.983009
   celldm(2)        = 1.8027759999999997
   celldm(3)        = 7.57536
/
&ELECTRONS
   electron_maxstep = 999
   scf_must_converge = .true.
   conv_thr         = 1e-06
   mixing_mode      = 'local-TF'
   mixing_beta      = 0.2
   diagonalization  = 'david'
   diago_thr_init   = 1e-12
   diago_david_ndim = 4
   diago_full_acc   = .true.
   startingwfc      = 'random'
/
&IONS
   ion_dynamics     = 'bfgs'
   upscale          = 1000000.0
   bfgs_ndim        = 1
/
&CELL
   press_conv_thr   = 0.1
   cell_dofree      = 'all'
/
&FCP
/
&RISM
/
ATOMIC_SPECIES
Li 6.94 Li.pbe-sl-kjpaw_psl.1.0.0.UPF

K_POINTS automatic
10 6 1  0 0 0

ATOMIC_POSITIONS angstrom
Li -0.0000000000 7.9459742622 31.1160729693  
Li -0.0000000000 10.4406999920 29.2544042559  
Li -0.0000000000 2.8343312529 29.8127960982  
Li -0.0000000000 5.7586857318 28.2311237215  
Li -0.0000000000 8.5461076032 26.2679319369  
Li -0.0000000000 11.3574333092 24.4899963077  
Li -0.0000000000 0.9233326202 27.2360862159  
Li -0.0000000000 3.8658355714 25.1741442253  
Li -0.0000000000 6.6600200268 23.3057278516  
Li -0.0000000000 9.4848487798 21.4549200098  
Li -0.0000000000 1.9836889205 22.3850526561  
Li -0.0000000000 4.1686930773 20.3748793072  
Li -0.0000000000 0.9241813417 32.1584873441  
Li 1.7175779803 8.1074629603 28.7393752701  
Li 1.7175780424 10.9016634212 26.8709630822  
Li 1.7175781227 3.4100611096 27.5551109071  
Li 1.7175781147 6.2213905534 25.7771768685  
Li 1.7175782292 9.0088077663 23.8139852453  
Li 1.7175781529 11.9331449919 22.2323071243  
Li 1.7175781147 1.4585273235 24.8090131210  
Li 1.7175778242 4.3267876444 22.7907001983  
Li 1.7175781147 6.8214916302 20.9290276649  
Li 1.7175780465 10.5987796308 31.6702146927  
Li 1.7175781147 1.4576587574 19.8866077004  
Li 1.7175781147 5.2826288597 30.5901835542  
Li 1.7175781227 0.3981509885 29.6600423541  
Li 3.4351562293 7.9459741741 31.1160727350  
Li 3.4351562293 10.4406995857 29.2544043003  
Li 3.4351562293 2.8343314289 29.8127962641  
Li 3.4351562293 5.7586859653 28.2311236077  
Li 3.4351562293 8.5461072329 26.2679319433  
Li 3.4351562293 11.3574333092 24.4899961793  
Li 3.4351562293 0.9233323867 27.2360863719  
Li 3.4351562293 3.8658353572 25.1741444456  
Li 3.4351562293 6.6600199647 23.3057278516  
Li 3.4351562293 9.4848487798 21.4549201363  
Li 3.4351562293 1.9836888689 22.3850526561  
Li 3.4351562293 4.1686930773 20.3748793072  
Li 3.4351562293 0.9241811856 32.1584875021  
Li 5.1527344784 8.1074629603 28.7393752701  
Li 5.1527344162 10.9016634212 26.8709630822  
Li 5.1527343359 3.4100611096 27.5551109071  
Li 5.1527343440 6.2213905534 25.7771768685  
Li 5.1527342295 9.0088077663 23.8139852453  
Li 5.1527343057 11.9331449919 22.2323071243  
Li 5.1527343440 1.4585273235 24.8090131210  
Li 5.1527346345 4.3267876444 22.7907001983  
Li 5.1527343440 6.8214916302 20.9290276649  
Li 5.1527344122 10.5987796308 31.6702146927  
Li 5.1527343440 1.4576587574 19.8866077004  
Li 5.1527343440 5.2826288597 30.5901835542  
Li 5.1527343359 0.3981509885 29.6600423541  

