&CONTROL
   calculation      = 'relax'
   verbosity        = 'high'
   restart_mode     = 'from_scratch'
   nstep            = 999
   tstress          = .false.
   tprnfor          = .true.
   outdir           = './Li/'
   prefix           = 'Lithium'
   etot_conv_thr    = 1e-05
   forc_conv_thr    = 0.000388
   disk_io          = 'minimal'
   pseudo_dir       = '/work/e89/e89/ba3g18/Repos/Pseudopotentials/Pslibrary'
/
&SYSTEM
   ibrav            = 14
   nbnd             = 36
   tot_charge       = 0.0
   ecutwfc          = 80.0
   ecutrho          = 800
   occupations      = 'smearing'
   degauss          = 0.01
   smearing         = 'cold'
   nspin            = 1
   input_dft        = 'pbe'
   lgcscf           = .true.
   gcscf_mu         = -2.404
   gcscf_conv_thr   = 0.001
   ntyp             = 1
   nat              = 16
   celldm(1)        = 11.243615
   celldm(2)        = 0.9999998496849888
   celldm(3)        = 7.921182
   celldm(4)        = 0.0
   celldm(5)        = 0.0
   celldm(6)        = -0.33333305010496117
/
&ELECTRONS
   electron_maxstep = 999
   scf_must_converge = .true.
   conv_thr         = 1e-06
   mixing_mode      = 'local-TF'
   mixing_beta      = 0.2
   diagonalization  = 'david'
   diago_thr_init   = 1e-12
   diago_david_ndim = 4
   diago_full_acc   = .true.
   startingwfc      = 'random'
/
&IONS
   ion_dynamics     = 'bfgs'
   upscale          = 1000000.0
   bfgs_ndim        = 1
/
&CELL
   press_conv_thr   = 0.1
   cell_dofree      = 'all'
/
&FCP
/
&RISM
/
ATOMIC_SPECIES
Li 6.94 Li.pbe-sl-kjpaw_psl.1.0.0.UPF

K_POINTS automatic
11 11 1  0 0 0

ATOMIC_POSITIONS angstrom
Li 0.9916111512 1.4024032944 20.0151683776  
Li 1.9832882700 2.8047934300 22.3533023480  
Li 0.9916594059 1.4023677261 24.7766328593  
Li 1.9832882800 2.8047934500 27.1146752594  
Li 0.0000285027 4.2072094469 20.0153093415  
Li 0.9916443500 5.6095863900 22.3534029488  
Li -0.0000144541 4.2071650152 24.7766867972  
Li 0.9916443300 5.6095863500 27.1147723789  
Li 3.9665481173 1.4023770231 20.0153094015  
Li 4.9582206700 2.8047934200 22.3533704377  
Li 3.9665910641 1.4024214248 24.7766868172  
Li 4.9582206800 2.8047934400 27.1147843271  
Li 2.9749654688 4.2071831756 20.0151683476  
Li 3.9665767500 5.6095863800 22.3533003699  
Li 2.9749172041 4.2072187139 24.7766328293  
Li 3.9665767300 5.6095863300 27.1147412157  

