&CONTROL
   calculation      = 'scf'
   verbosity        = 'high'
   restart_mode     = 'from_scratch'
   nstep            = 999
   tstress          = .false.
   tprnfor          = .true.
   outdir           = './Li/'
   prefix           = 'Li'
   etot_conv_thr    = 1e-05
   forc_conv_thr    = 0.000388
   disk_io          = 'none'
   pseudo_dir       = '/home/ba3g18/Repos/Pseudopotentials/pslibrary.1.0.0/pbe/PSEUDOPOTENTIALS'
/
&SYSTEM
   ibrav            = 12
   nbnd             = 153
   tot_charge       = 0.0
   ecutwfc          = 80.0
   ecutrho          = 800
   occupations      = 'smearing'
   degauss          = 0.01
   smearing         = 'cold'
   nspin            = 1
   input_dft        = 'pbe'
   ntyp             = 1
   nat              = 68
   celldm(1)        = 18.360746999913715
   celldm(2)        = 1.0606597768301957
   celldm(3)        = 5.518975766429952
   celldm(4)        = -0.23570234816455787
/
&ELECTRONS
   electron_maxstep = 999
   scf_must_converge = .true.
   conv_thr         = 1e-14
   mixing_mode      = 'local-TF'
   mixing_beta      = 0.2
   diagonalization  = 'david'
   startingwfc      = 'random'
/
&IONS
   ion_dynamics     = 'bfgs'
   upscale          = 1000000.0
   bfgs_ndim        = 6
/
&CELL
   press_conv_thr   = 0.1
   cell_dofree      = 'all'
/
&FCP
/
&RISM
/
ATOMIC_SPECIES
Li 6.94 Li.pbe-sl-kjpaw_psl.1.0.0.UPF

K_POINTS automatic
7 7 1  0 0 0

ATOMIC_POSITIONS angstrom
Li -0.0039028976 0.2922311696 20.0000000000  
Li 0.0023799433 5.8612639709 33.2465722215  
Li 2.4316441637 7.6464361182 31.6584296720  
Li 2.4328922217 1.8572916703 32.0677723092  
Li 0.0025138630 3.5339300853 30.7980299350  
Li 2.4306813557 5.3458097523 29.0901417841  
Li 2.4282612680 8.8293551698 25.7509761955  
Li 0.0026162959 9.4206215846 30.0233303777  
Li 0.0013424860 1.1780916608 28.2657224864  
Li 2.4285252715 2.9735704915 26.4903073495  
Li -0.0018682068 4.6955449465 24.9360124179  
Li 2.4269986573 6.4490313292 23.2007720038  
Li 0.0005083704 7.0602780429 27.4736674741  
Li 2.4271658498 0.5365767907 24.2956743969  
Li -0.0034648623 2.3855506561 22.4364064883  
Li 2.4264503519 3.9023375192 20.6650504316  
Li -0.0026031827 8.2749716527 21.6558618463  
Li 0.0033990179 0.5600861753 31.1864419462  
Li 0.0020312079 6.5117023559 30.4220923605  
Li 2.4308888799 8.2651887797 28.6868535092  
Li 2.4308736317 2.4090306055 29.3272387935  
Li 0.0007518684 4.1313805821 27.8718898933  
Li 2.4285160565 5.9004566781 26.1491909058  
Li 2.4265035707 9.4268038112 22.8248392044  
Li 0.0004944424 9.9871602277 27.1325888376  
Li -0.0013741119 1.7675330528 25.3571163911  
Li 2.4264098816 3.5401041549 23.5995516836  
Li -0.0026127772 5.3143089842 21.9644403972  
Li 2.4266422697 7.0994472209 20.3762856179  
Li -0.0016621509 7.6149175971 24.5327109417  
Li 2.4251562952 1.0883442002 21.5551795148  
Li 0.0042060295 2.6534441381 33.6228588563  
Li 2.4316303509 4.6857716418 31.9669890403  
Li 0.0025579169 9.0583610272 32.9578143576  
Li 4.8537311386 0.2921571011 20.0000070128  
Li 4.8604674711 5.8612269606 33.2466191920  
Li 7.2897481778 7.6464509080 31.6584246214  
Li 7.2909415544 1.8573139204 32.0679234763  
Li 4.8605406591 3.5339244428 30.7980214083  
Li 7.2886954990 5.3458139974 29.0900941137  
Li 7.2863377824 8.8293721168 25.7509843225  
Li 4.8606545446 9.4206419328 30.0232586870  
Li 4.8594172132 1.1780918366 28.2657486873  
Li 7.2865871448 2.9735782000 26.4903494760  
Li 4.8561614507 4.6955422344 24.9360051250  
Li 7.2850131613 6.4490027102 23.2006995978  
Li 4.8585652379 7.0602792305 27.4737234108  
Li 7.2851986648 0.5366152820 24.2954918819  
Li 4.8546719563 2.3855323536 22.4364178491  
Li 7.2845347712 3.9025007453 20.6651371340  
Li 4.8554326438 8.2749441394 21.6559454081  
Li 4.8614900557 0.5600766800 31.1864583652  
Li 4.8600884250 6.5117328227 30.4221613224  
Li 7.2889529589 8.2651997834 28.6868527951  
Li 7.2889319916 2.4090308844 29.3273173706  
Li 4.8587777616 4.1313676216 27.8718745133  
Li 7.2865458419 5.9004608088 26.1491442719  
Li 7.2845702885 9.4268136458 22.8248341096  
Li 4.8585208475 9.9871703574 27.1324781228  
Li 4.8566963235 1.7675353509 25.3571402355  
Li 7.2844577504 3.5401036491 23.5995835099  
Li 4.8553537798 5.3142752789 21.9644293008  
Li 7.2846363570 7.0995313993 20.3762477181  
Li 4.8564151236 7.6149320694 24.5327795695  
Li 7.2831962930 1.0882980364 21.5548455361  
Li 4.8620610981 2.6534091852 33.6228563460  
Li 7.2896662779 4.6857823354 31.9669307228  
Li 4.8605938896 9.0582686013 32.9577231046  

