&CONTROL
   calculation      = 'relax'
   verbosity        = 'high'
   restart_mode     = 'from_scratch'
   nstep            = 999
   tstress          = .false.
   tprnfor          = .true.
   outdir           = './Li/'
   prefix           = 'Lithium'
   etot_conv_thr    = 1e-05
   forc_conv_thr    = 0.000388
   disk_io          = 'minimal'
   pseudo_dir       = '/home/mmm1182/Repos/Pseudopotentials/pslibrary'
/
&SYSTEM
   ibrav            = 12
   nbnd             = 171
   tot_charge       = 0.0
   ecutwfc          = 80.0
   ecutrho          = 800
   occupations      = 'smearing'
   degauss          = 0.01
   smearing         = 'cold'
   nspin            = 1
   input_dft        = 'pbe'
   lgcscf           = .true.
   gcscf_mu         = -4.404
   gcscf_conv_thr   = 0.001
   ntyp             = 1
   nat              = 76
   celldm(1)        = 18.360747
   celldm(2)        = 1.1180342461771913
   celldm(3)        = 5.615419
   celldm(4)        = 0.22360674626453153
/
&ELECTRONS
   electron_maxstep = 999
   scf_must_converge = .true.
   conv_thr         = 1e-06
   mixing_mode      = 'local-TF'
   mixing_beta      = 0.2
   diagonalization  = 'david'
   diago_thr_init   = 1e-12
   diago_david_ndim = 4
   diago_full_acc   = .true.
   startingwfc      = 'random'
/
&IONS
   ion_dynamics     = 'bfgs'
   upscale          = 1000000.0
   bfgs_ndim        = 1
/
&CELL
   press_conv_thr   = 0.1
   cell_dofree      = 'all'
/
&FCP
/
&RISM
/
ATOMIC_SPECIES
Li 6.94 Li.pbe-sl-kjpaw_psl.1.0.0.UPF

K_POINTS automatic
7 6 1  0 0 0

ATOMIC_POSITIONS angstrom
Li 0.0098840635 -0.9043692230 34.6491124137  
Li 2.4189831498 7.4824525003 20.2298547371  
Li 2.4184875512 3.6977285791 21.2439605515  
Li 2.4176827888 0.5392390099 22.5102788312  
Li 4.8469356566 7.8622850400 22.5196963853  
Li 4.8469613424 4.3053194236 23.3091025969  
Li 4.8469395844 1.1602124441 24.2524358683  
Li 2.4211981519 8.2824214510 25.1298368623  
Li 2.4231194066 5.0526859194 25.8962170420  
Li 2.4242092879 1.6765463580 26.6597123544  
Li 4.8605629235 8.8363397951 27.5913423381  
Li 4.8637364243 5.5556601512 28.2716279438  
Li 4.8650636082 2.3014026565 29.1965134214  
Li 2.4380718908 9.6327085970 29.6245024334  
Li 2.4402885260 6.0380463306 30.5348137370  
Li 2.4402330625 2.7978885570 31.5946049362  
Li 4.8694683700 10.0644756181 32.1534054005  
Li 4.8690743331 7.1451911099 33.3047197535  
Li 4.8678146956 3.3551513195 33.9135225196  
Li 2.4175559708 9.4391518799 22.4052433445  
Li 2.4177839126 6.1185809353 22.9658789482  
Li 2.4177184898 2.8786071965 24.0249953459  
Li 4.8489756890 9.8719749978 24.9353124311  
Li 4.8510672712 6.6139003785 25.3647296092  
Li 4.8523474453 3.3598090002 26.2894051013  
Li 4.8556076603 0.0796284964 26.9701925564  
Li 2.4338358534 7.2400892115 27.9007252937  
Li 2.4349447824 3.8627765226 28.6660105978  
Li 2.4368902861 0.6334521061 29.4302707303  
Li 4.8691037845 7.7555301632 30.3074165924  
Li 4.8691523094 4.6110257123 31.2498297536  
Li 4.8691657763 1.0537988486 32.0404573360  
Li 2.4403294269 8.3768388354 32.0491714836  
Li 2.4395724606 5.2203636536 33.3148349249  
Li 2.4390730385 1.4331199193 34.3298445360  
Li 4.8481783163 9.8176863991 19.9093063009  
Li 4.8480111928 5.5627831543 20.6454383089  
Li 4.8471476858 1.7710281080 21.2536440485  
Li 4.8683544862 -0.9042880978 34.6492999567  
Li 7.2769769433 7.4821986992 20.2300214729  
Li 7.2766311990 3.6979129284 21.2439122112  
Li 7.2757377997 0.5390551079 22.5102268577  
Li 9.7049581173 7.8624326324 22.5196892032  
Li 9.7049215488 4.3051232924 23.3090710088  
Li 9.7050473956 1.1602408325 24.2523451585  
Li 7.2793104154 8.2825221548 25.1299550670  
Li 7.2811872455 5.0526220442 25.8961800463  
Li 7.2823318838 1.6766723842 26.6598771733  
Li 9.7185253856 8.8362433550 27.5913121268  
Li 9.7218149560 5.5556479687 28.2716180523  
Li 9.7230415186 2.3013834420 29.1964263719  
Li 7.2960142068 9.6326027265 29.6245103039  
Li 7.2984970472 6.0382180208 30.5350883718  
Li 7.2981526906 2.7979127141 31.5945409026  
Li 9.7276643508 10.0644717601 32.1535645761  
Li 9.7269650803 7.1450021922 33.3045390810  
Li 9.7261963522 3.3552491244 33.9135053362  
Li 7.2754864578 9.4392166580 22.4052875698  
Li 7.2759681672 6.1186106332 22.9659673446  
Li 7.2755990131 2.8784389613 24.0249524122  
Li 9.7071118586 9.8721434494 24.9354226955  
Li 9.7090694149 6.6138585851 25.3646796569  
Li 9.7104140919 3.3597995075 26.2893413042  
Li 9.7136233188 0.0794762713 26.9701057078  
Li 7.2918001091 7.2399187561 27.9008222555  
Li 7.2929670231 3.8629143803 28.6661517830  
Li 7.2948363895 0.6333909919 29.4303263315  
Li 9.7271727052 7.7556541997 30.3073887951  
Li 9.7272052117 4.6109031992 31.2498154891  
Li 9.7271669107 1.0539510620 32.0403899032  
Li 7.2983788167 8.3770690640 32.0492942153  
Li 7.2974934998 5.2200925861 33.3150314123  
Li 7.2971903062 1.4335175662 34.3297804807  
Li 9.7058237731 9.8175806544 19.9092195861  
Li 9.7062843161 5.5628704591 20.6454625884  
Li 9.7050726678 1.7708661495 21.2534524395  

