&CONTROL
   calculation      = 'relax'
   verbosity        = 'high'
   restart_mode     = 'from_scratch'
   nstep            = 999
   tstress          = .false.
   tprnfor          = .true.
   outdir           = './Li/'
   prefix           = 'Lithium'
   etot_conv_thr    = 1e-05
   forc_conv_thr    = 0.000388
   disk_io          = 'minimal'
   pseudo_dir       = '/work/e89/e89/ba3g18/Repos/Pseudopotentials/Pslibrary'
/
&SYSTEM
   ibrav            = 4
   nbnd             = 108
   tot_charge       = 0.0
   ecutwfc          = 80.0
   ecutrho          = 800
   occupations      = 'smearing'
   degauss          = 0.01
   smearing         = 'cold'
   nspin            = 1
   input_dft        = 'pbe'
   lgcscf           = .true.
   gcscf_mu         = -1.904
   gcscf_conv_thr   = 0.001
   ntyp             = 1
   nat              = 48
   celldm(1)        = 18.360747
   celldm(3)        = 5.270332
/
&ELECTRONS
   electron_maxstep = 999
   scf_must_converge = .true.
   conv_thr         = 1e-06
   mixing_mode      = 'local-TF'
   mixing_beta      = 0.2
   diagonalization  = 'david'
   diago_thr_init   = 1e-12
   diago_david_ndim = 4
   diago_full_acc   = .true.
   startingwfc      = 'random'
/
&IONS
   ion_dynamics     = 'bfgs'
   upscale          = 1000000.0
   bfgs_ndim        = 1
/
&CELL
   press_conv_thr   = 0.1
   cell_dofree      = 'all'
/
&FCP
/
&RISM
/
ATOMIC_SPECIES
Li 6.94 Li.pbe-sl-kjpaw_psl.1.0.0.UPF

K_POINTS automatic
7 7 1  0 0 0

ATOMIC_POSITIONS angstrom
Li -0.0000000100 0.0000213102 25.0396408881  
Li 2.4290685140 1.4024405963 21.2219740552  
Li 4.8580444100 2.8048636382 23.1292189992  
Li 0.0000000100 0.0000489229 21.9905243398  
Li 2.4290472823 1.4024290154 24.1227101838  
Li 4.8580445000 2.8048336061 20.1536903826  
Li 0.0000000000 -0.0000628374 31.0532986913  
Li 2.4290090631 1.4023523239 27.0843233796  
Li 4.8580444100 2.8047409783 29.2166036178  
Li -0.0000000100 -0.0000459237 28.0778313197  
Li 2.4289981229 1.4023523635 29.9850104798  
Li 4.8580444200 2.8047685947 26.1674391652  
Li 2.4290161561 4.2072042389 25.0396170745  
Li 4.8580443900 5.6096111798 21.2219852271  
Li 7.2870320805 7.0119915482 23.1292284239  
Li 2.4290212243 4.2072319813 21.9905108909  
Li 4.8580444100 5.6095898300 24.1227050997  
Li 7.2870597207 7.0120350887 20.1536909220  
Li 2.4290048990 4.2071820357 31.0532861056  
Li 4.8580444000 5.6095772109 27.0843004313  
Li 7.2870774732 7.0119564718 29.2164475257  
Li 2.4290503447 4.2071470005 28.0778192123  
Li 4.8580444000 5.6095788919 29.9849592297  
Li 7.2870630425 7.0119710500 26.1673954619  
Li 4.8580444000 -0.0000137225 25.0397045320  
Li 7.2870203060 1.4024405763 21.2219742052  
Li 9.7160888200 2.8048534693 23.1292055351  
Li 4.8580443900 0.0000228911 21.9906849760  
Li 7.2870415377 1.4024290154 24.1227102638  
Li 9.7160887400 2.8048039326 20.1536601775  
Li 4.8580444000 -0.0000912263 31.0532927602  
Li 7.2870797569 1.4023523239 27.0843234296  
Li 9.7160888300 2.8047310833 29.2164443855  
Li 4.8580444000 -0.0000040181 28.0778401846  
Li 7.2870906971 1.4023523535 29.9850105198  
Li 9.7160888200 2.8047890788 26.1673949857  
Li 7.2870726540 4.2072042489 25.0396170745  
Li 9.7160888400 5.6096515023 21.2219340442  
Li 12.1451455695 7.0119915582 23.1292284339  
Li 7.2870675857 4.2072320013 21.9905109009  
Li 9.7160888300 5.6096278238 24.1226770636  
Li 12.1451179293 7.0120351987 20.1536909320  
Li 7.2870839110 4.2071820457 31.0532860956  
Li 9.7160888300 5.6095871578 27.0842753114  
Li 12.1451001769 7.0119564718 29.2164475257  
Li 7.2870384753 4.2071470005 28.0778192023  
Li 9.7160888300 5.6095225557 29.9849214705  
Li 12.1451146175 7.0119710600 26.1673954619  

