&CONTROL
   calculation      = 'scf'
   verbosity        = 'high'
   restart_mode     = 'from_scratch'
   nstep            = 999
   tstress          = .false.
   tprnfor          = .true.
   outdir           = './Li/'
   prefix           = 'Lithium'
   etot_conv_thr    = 1e-05
   forc_conv_thr    = 0.000388
   disk_io          = 'minimal'
   pseudo_dir       = '/work/e89/e89/ba3g18/Repos/Pseudopotentials/Pslibrary'
/
&SYSTEM
   ibrav            = 12
   nbnd             = 99
   tot_charge       = 0.0
   ecutwfc          = 80.0
   ecutrho          = 800
   occupations      = 'smearing'
   degauss          = 0.01
   smearing         = 'cold'
   nspin            = 1
   input_dft        = 'pbe'
   lgcscf           = .true.
   gcscf_mu         = -3.404
   gcscf_conv_thr   = 0.001
   ntyp             = 1
   nat              = 44
   celldm(1)        = 18.360747
   celldm(2)        = 0.8660252146075195
   celldm(3)        = 5.240449
   celldm(4)        = -0.28867519765379973
/
&ELECTRONS
   electron_maxstep = 999
   scf_must_converge = .true.
   conv_thr         = 1e-14
   mixing_mode      = 'local-TF'
   mixing_beta      = 0.2
   diagonalization  = 'david'
   diago_thr_init   = 1e-12
   diago_david_ndim = 4
   diago_full_acc   = .true.
   startingwfc      = 'random'
/
&IONS
   ion_dynamics     = 'bfgs'
   upscale          = 1000000.0
   bfgs_ndim        = 1
/
&CELL
   press_conv_thr   = 0.1
   cell_dofree      = 'all'
/
&FCP
/
&RISM
/
ATOMIC_SPECIES
Li 6.94 Li.pbe-sl-kjpaw_psl.1.0.0.UPF

K_POINTS automatic
7 8 1  0 0 0

ATOMIC_POSITIONS angstrom
Li -2.4319196365 7.3846331754 19.8183281856  
Li 2.4312226414 2.4266074091 30.6769410026  
Li 0.0027085317 4.4260015756 29.3653783535  
Li 2.4312195599 6.4445884389 28.2323394602  
Li 2.4299802014 0.7550699958 27.2534493756  
Li 0.0006694924 2.9438186125 26.2735069025  
Li 2.4290178867 5.0860959407 25.2477766131  
Li -0.0009813679 7.3137606601 24.1840476073  
Li -0.0018693384 1.5808515661 22.9543992263  
Li 2.4267076916 3.7932212756 22.0527835483  
Li -0.0028576700 5.7397946482 21.1913450528  
Li 0.0023157318 1.3334228914 28.8638963036  
Li 2.4308888103 3.5458048201 27.9622834449  
Li 0.0009817661 5.8690399830 26.7326254242  
Li 2.4290281022 8.0966907179 25.6689057850  
Li 2.4283510908 2.1828199889 24.6431695646  
Li -0.0009559027 4.3715807438 23.6632300652  
Li 2.4268256148 6.7382177754 22.6843425034  
Li 2.4263110029 0.7006458356 21.5512963494  
Li -0.0022027919 2.7000365943 20.2397383618  
Li 2.4319193324 5.7981643256 31.0983576331  
Li 0.0028583757 7.4429991719 29.7253330672  
Li 2.4261253266 7.3846330804 19.8183281152  
Li 7.2892683182 2.4266073127 30.6769413254  
Li 4.8607530910 4.4260014382 29.3653782250  
Li 7.2892639276 6.4445882112 28.2323395512  
Li 7.2880242892 0.7550697198 27.2534493064  
Li 4.8587140977 2.9438184062 26.2735073848  
Li 7.2870624289 5.0860956183 25.2477767778  
Li 4.8570628536 7.3137605742 24.1840481665  
Li 4.8561750499 1.5808514892 22.9543994932  
Li 7.2847522113 3.7932211579 22.0527837352  
Li 4.8551867683 5.7397944700 21.1913450477  
Li 4.8603601989 1.3334227624 28.8638969564  
Li 7.2889334931 3.5458046395 27.9622834956  
Li 4.8590261517 5.8690397017 26.7326254551  
Li 7.2870727993 8.0966908247 25.6689058351  
Li 7.2863955727 2.1828197401 24.6431694960  
Li 4.8570884618 4.3715806267 23.6632303630  
Li 7.2848696435 6.7382176406 22.6843425165  
Li 7.2843555555 0.7006456905 21.5512965785  
Li 4.8558421259 2.7000363514 20.2397387349  
Li 7.2899640002 5.7981642615 31.0983578088  
Li 4.8609029822 7.4429991310 29.7253331936  

