&CONTROL
   calculation      = 'relax'
   restart_mode     = 'from_scratch'
   tstress          = .false.
   tprnfor          = .true.
   outdir           = './'
   etot_conv_thr    = 1e-05
   forc_conv_thr    = 0.000388
   disk_io          = 'none'
   pseudo_dir       = '/iridisfs/home/ba3g18/Repos/Pseudopotentials/pslibrary.1.0.0/pbe/PSEUDOPOTENTIALS'
/
&SYSTEM
   ibrav            = 0
   nbnd             = 72
   ecutwfc          = 80
   ecutrho          = 800
   occupations      = 'smearing'
   degauss          = 0.01
   smearing         = 'cold'
   input_dft        = 'PBE'
   ntyp             = 1
   nat              = 32
/
&ELECTRONS
   electron_maxstep = 200
   conv_thr         = 1e-06
   mixing_mode      = 'local-TF'
   mixing_beta      = 0.2
   diagonalization  = 'david'
/
&IONS
   ion_dynamics     = 'bfgs'
   upscale          = 1000000.0
   bfgs_ndim        = 1
/
&CELL
   press_conv_thr   = 0.1
   cell_dofree      = 'all'
/
&FCP
/
&RISM
/
ATOMIC_SPECIES
Li 6.94 Li.pbe-sl-kjpaw_psl.1.0.0.UPF

K_POINTS automatic
10 10 1  0 0 0

CELL_PARAMETERS angstrom
6.87031246000000 0.00000000000000 0.00000000000000
0.00000000000000 6.87031246000000 0.00000000000000
0.00000000000000 0.00000000000000 65.26796836000000

ATOMIC_POSITIONS angstrom
Li -0.0000000700 -0.0000000700 28.3767698900  
Li 1.7175762300 1.7175762300 26.5776926800  
Li -0.0000000700 -0.0000000700 31.7720748500  
Li 1.7175776900 1.7175776900 30.0785933100  
Li -0.0000000700 -0.0000000700 35.1893762900  
Li 1.7175802600 1.7175802600 33.4959008800  
Li -0.0000000600 -0.0000000600 38.6902611900  
Li 1.7175702600 1.7175702600 36.8911985400  
Li -0.0000000700 3.4351561600 28.3767632300  
Li 1.7175762300 5.1527361000 26.5776927000  
Li -0.0000000700 3.4351561700 31.7720694000  
Li 1.7175776900 5.1527346400 30.0785933000  
Li -0.0000000700 3.4351561800 35.1893907300  
Li 1.7175802600 5.1527320800 33.4959008800  
Li -0.0000000600 3.4351561700 38.6902552300  
Li 1.7175702600 5.1527420800 36.8911985500  
Li 3.4351561600 -0.0000000700 28.3767632300  
Li 5.1527361000 1.7175762300 26.5776927000  
Li 3.4351561700 -0.0000000700 31.7720694000  
Li 5.1527346400 1.7175776900 30.0785933000  
Li 3.4351561800 -0.0000000700 35.1893907300  
Li 5.1527320800 1.7175802600 33.4959008800  
Li 3.4351561700 -0.0000000600 38.6902552300  
Li 5.1527420800 1.7175702600 36.8911985500  
Li 3.4351561600 3.4351561600 28.3767650600  
Li 5.1527361000 5.1527361000 26.5776927100  
Li 3.4351561700 3.4351561700 31.7720735300  
Li 5.1527346400 5.1527346400 30.0785933000  
Li 3.4351561800 3.4351561800 35.1894046500  
Li 5.1527320800 5.1527320800 33.4959008800  
Li 3.4351561700 3.4351561700 38.6902440200  
Li 5.1527420800 5.1527420800 36.8911985500  

