&CONTROL
   calculation      = 'scf'
   verbosity        = 'high'
   restart_mode     = 'from_scratch'
   nstep            = 999
   tstress          = .false.
   tprnfor          = .true.
   outdir           = './Li/'
   prefix           = 'Lithium'
   etot_conv_thr    = 1e-05
   forc_conv_thr    = 0.000388
   disk_io          = 'minimal'
   pseudo_dir       = '/work/e89/e89/ba3g18/Repos/Pseudopotentials/Pslibrary'
/
&SYSTEM
   ibrav            = 8
   nbnd             = 99
   tot_charge       = 0.0
   ecutwfc          = 80.0
   ecutrho          = 800
   occupations      = 'smearing'
   degauss          = 0.01
   smearing         = 'cold'
   nspin            = 1
   input_dft        = 'pbe'
   lgcscf           = .true.
   gcscf_mu         = -1.404
   gcscf_conv_thr   = 0.001
   ntyp             = 1
   nat              = 44
   celldm(1)        = 18.360747
   celldm(2)        = 0.586302
   celldm(3)        = 5.699811
/
&ELECTRONS
   electron_maxstep = 999
   scf_must_converge = .true.
   conv_thr         = 1e-14
   mixing_mode      = 'local-TF'
   mixing_beta      = 0.2
   diagonalization  = 'david'
   diago_thr_init   = 1e-12
   diago_david_ndim = 4
   diago_full_acc   = .true.
   startingwfc      = 'random'
/
&IONS
   ion_dynamics     = 'bfgs'
   upscale          = 1000000.0
   bfgs_ndim        = 1
/
&CELL
   press_conv_thr   = 0.1
   cell_dofree      = 'all'
/
&FCP
/
&RISM
/
ATOMIC_SPECIES
Li 6.94 Li.pbe-sl-kjpaw_psl.1.0.0.UPF

K_POINTS automatic
7 12 1  0 0 0

ATOMIC_POSITIONS angstrom
Li 4.8580444204 5.7595552671 35.1741755248  
Li 2.4289041547 4.0800700568 20.2050882074  
Li 2.4290343161 1.0742871736 21.5806873359  
Li 4.8580444204 2.2873906974 20.4653379223  
Li 0.0000000000 4.9690764642 22.0056909720  
Li 4.8580444204 1.9424437422 23.4722854122  
Li 2.4290209190 3.1011270402 26.0199900065  
Li 2.4290361536 5.7465074363 27.4154420215  
Li 2.4290555201 3.6134937051 23.1047923079  
Li 2.4290704445 0.5206051149 24.4641123202  
Li 0.0000000000 4.5314768619 25.0355616749  
Li 4.8580444204 1.4863417767 26.4248443086  
Li 4.8580444204 4.0927913381 27.9647152143  
Li 4.8580444204 1.0413543205 29.3599784341  
Li 2.4291334205 5.3075679730 30.3447470807  
Li 2.4288565436 2.2004347524 31.9076480513  
Li 2.4290559506 2.6562667890 28.9550252529  
Li 0.0000000000 3.6217461114 30.9161073236  
Li 4.8580444204 0.5291329259 32.2748905003  
Li 4.8580444204 3.0689544882 33.7986322654  
Li 2.4290759382 4.8703671139 33.3744058396  
Li 2.4293261908 1.8559762044 34.9141684466  
Li 9.7160888407 5.7603432671 35.1742832844  
Li 7.2871846860 4.0800700568 20.2050882074  
Li 7.2870545246 1.0742871736 21.5806873359  
Li 9.7160888407 2.2873021009 20.4652152449  
Li 4.8580444204 4.9692221466 22.0054006942  
Li 9.7160888407 1.9427510575 23.4721832010  
Li 7.2870679218 3.1011270402 26.0199900065  
Li 7.2870526872 5.7465074363 27.4154420215  
Li 7.2870333207 3.6134937051 23.1047923079  
Li 7.2870183962 0.5206051149 24.4641123202  
Li 4.8580444204 4.5317851978 25.0351631420  
Li 9.7160888407 1.4867694808 26.4248985695  
Li 9.7160888407 4.0925384508 27.9651665525  
Li 9.7160888407 1.0420159363 29.3600415329  
Li 7.2869554202 5.3075679730 30.3447470807  
Li 7.2872322972 2.2004347524 31.9076480513  
Li 7.2870328901 2.6562667890 28.9550252529  
Li 4.8580444204 3.6224134948 30.9153835189  
Li 9.7160888407 0.5302950860 32.2749941308  
Li 9.7160888407 3.0683871791 33.7992640155  
Li 7.2870129026 4.8703671139 33.3744058396  
Li 7.2867626499 1.8559762044 34.9141684466  

