&CONTROL
   calculation      = 'scf'
   verbosity        = 'high'
   restart_mode     = 'from_scratch'
   nstep            = 999
   tstress          = .false.
   tprnfor          = .true.
   outdir           = './Li/'
   prefix           = 'Li'
   etot_conv_thr    = 1e-05
   forc_conv_thr    = 0.000388
   disk_io          = 'none'
   pseudo_dir       = '/home/ba3g18/Repos/Pseudopotentials/pslibrary.1.0.0/pbe/PSEUDOPOTENTIALS'
/
&SYSTEM
   ibrav            = 8
   nbnd             = 99
   tot_charge       = 0.0
   ecutwfc          = 80.0
   ecutrho          = 800
   occupations      = 'smearing'
   degauss          = 0.01
   smearing         = 'cold'
   nspin            = 1
   input_dft        = 'pbe'
   ntyp             = 1
   nat              = 44
   celldm(1)        = 18.360746999913715
   celldm(2)        = 0.586302000002049
   celldm(3)        = 5.699811427702183
/
&ELECTRONS
   electron_maxstep = 999
   scf_must_converge = .true.
   conv_thr         = 1e-14
   mixing_mode      = 'local-TF'
   mixing_beta      = 0.2
   diagonalization  = 'david'
   startingwfc      = 'random'
/
&IONS
   ion_dynamics     = 'bfgs'
   upscale          = 1000000.0
   bfgs_ndim        = 6
/
&CELL
   press_conv_thr   = 0.1
   cell_dofree      = 'all'
/
&FCP
/
&RISM
/
ATOMIC_SPECIES
Li 6.94 Li.pbe-sl-kjpaw_psl.1.0.0.UPF

K_POINTS automatic
7 12 1  0 0 0

ATOMIC_POSITIONS angstrom
Li 4.8580444100 5.5413709121 35.3798742068  
Li 2.4289977756 4.2977832935 20.0000000000  
Li 2.4290287746 1.0186274518 21.7874958481  
Li 4.8580444100 2.2185479039 20.5979381600  
Li -0.0000000100 4.9710247434 21.9595753878  
Li 4.8580444100 1.9060889151 23.5941282273  
Li 2.4290332504 3.1348952564 25.8409672969  
Li 2.4290136787 5.7040751511 27.5143142792  
Li 2.4290313403 3.6577741489 22.8940266638  
Li 2.4290194234 0.4669171143 24.6216711161  
Li -0.0000000100 4.5741178443 24.9369400652  
Li 4.8580444100 1.4676283058 26.5729780401  
Li 4.8580444100 4.1354629313 27.8654376187  
Li 4.8580444100 1.0079833242 29.5388877907  
Li 2.4290497909 5.2653871905 30.4429613471  
Li 2.4289816607 2.2368529811 31.7857107269  
Li 2.4290253170 2.6753017879 28.8068526423  
Li -0.0000000100 3.6759670376 30.7583441433  
Li 4.8580444100 0.4850805526 32.4858480987  
Li 4.8580444100 3.1244792589 33.5920968060  
Li 2.4289834005 4.8684812863 33.4203024411  
Li 2.4293503146 1.9244037338 34.7818798936  
Li 9.7160888300 5.5421221684 35.3797928596  
Li 7.2870910444 4.2977833035 20.0000000000  
Li 7.2870600454 1.0186274518 21.7874958581  
Li 9.7160888300 2.2185215398 20.5979520258  
Li 4.8580444100 4.9710352532 21.9594978499  
Li 9.7160888300 1.9061195117 23.5941208486  
Li 7.2870555696 3.1348952564 25.8409672969  
Li 7.2870751413 5.7040751511 27.5143142792  
Li 7.2870574697 3.6577741489 22.8940266638  
Li 7.2870693966 0.4669171143 24.6216711161  
Li 4.8580444100 4.5741470120 24.9368148966  
Li 9.7160888300 1.4676766457 26.5729897846  
Li 9.7160888300 4.1354177091 27.8656132732  
Li 9.7160888300 1.0081330685 29.5388483744  
Li 7.2870390291 5.2653871905 30.4429613471  
Li 7.2871071593 2.2368529811 31.7857107269  
Li 7.2870634930 2.6753017879 28.8068526423  
Li 4.8580444100 3.6761089909 30.7580039392  
Li 9.7160888300 0.4852917566 32.4857769703  
Li 9.7160888300 3.1241738047 33.5926082854  
Li 7.2871054195 4.8684812863 33.4203024411  
Li 7.2867385054 1.9244037338 34.7818798936  

