&CONTROL
   calculation      = 'relax'
   verbosity        = 'high'
   restart_mode     = 'from_scratch'
   nstep            = 999
   tstress          = .false.
   tprnfor          = .true.
   outdir           = './Li/'
   prefix           = 'Lithium'
   etot_conv_thr    = 1e-05
   forc_conv_thr    = 0.000388
   disk_io          = 'minimal'
   pseudo_dir       = '/work/e89/e89/ba3g18/Repos/Pseudopotentials/Pslibrary'
/
&SYSTEM
   ibrav            = 12
   nbnd             = 171
   tot_charge       = 0.0
   ecutwfc          = 80.0
   ecutrho          = 800
   occupations      = 'smearing'
   degauss          = 0.01
   smearing         = 'cold'
   nspin            = 1
   input_dft        = 'pbe'
   lgcscf           = .true.
   gcscf_mu         = -2.904
   gcscf_conv_thr   = 0.001
   ntyp             = 1
   nat              = 76
   celldm(1)        = 18.360747
   celldm(2)        = 1.1180342461771913
   celldm(3)        = 5.615419
   celldm(4)        = 0.22360674626453153
/
&ELECTRONS
   electron_maxstep = 999
   scf_must_converge = .true.
   conv_thr         = 1e-06
   mixing_mode      = 'local-TF'
   mixing_beta      = 0.2
   diagonalization  = 'david'
   diago_thr_init   = 1e-12
   diago_david_ndim = 4
   diago_full_acc   = .true.
   startingwfc      = 'random'
/
&IONS
   ion_dynamics     = 'bfgs'
   upscale          = 1000000.0
   bfgs_ndim        = 1
/
&CELL
   press_conv_thr   = 0.1
   cell_dofree      = 'all'
/
&FCP
/
&RISM
/
ATOMIC_SPECIES
Li 6.94 Li.pbe-sl-kjpaw_psl.1.0.0.UPF

K_POINTS automatic
7 6 1  0 0 0

ATOMIC_POSITIONS angstrom
Li 0.0098190160 -0.6341233389 34.5724434220  
Li 2.4191148012 7.3483816827 20.3345066732  
Li 2.4194067568 3.7579553965 21.3445102013  
Li 2.4188941399 0.5858242084 22.3607278498  
Li 4.8479138287 7.8899600730 22.5424472382  
Li 4.8480525160 4.2765958783 23.3939474226  
Li 4.8481395259 1.0935780989 24.2604604102  
Li 2.4205970446 8.3600580951 25.0213537343  
Li 2.4230248918 5.0388283653 25.8971154011  
Li 2.4255616609 1.6268278183 26.7751862922  
Li 4.8598534479 8.8700972695 27.5332848091  
Li 4.8629978129 5.5936574891 28.2437736601  
Li 4.8653347641 2.2720849029 29.2097574863  
Li 2.4382839820 9.5696092832 29.7043133024  
Li 2.4389140457 6.1318305879 30.4504977662  
Li 2.4391688659 2.7951495325 31.5128946721  
Li 4.8682767230 10.0098318984 32.3063290402  
Li 4.8679786873 7.0210128380 33.2748659055  
Li 4.8677297015 3.3623804510 33.7742243840  
Li 2.4187888520 9.4941250546 22.2535792817  
Li 2.4188747724 6.1209459796 23.0470140653  
Li 2.4191291792 2.7842622179 24.1094126064  
Li 4.8487842946 9.9343475780 24.8555965746  
Li 4.8507564160 6.6440114083 25.3501505804  
Li 4.8530927951 3.3224410287 26.3161368061  
Li 4.8562378020 0.0459955827 27.0266249203  
Li 2.4324845968 7.2892650931 27.7847231301  
Li 2.4350217851 3.8772687735 28.6627921024  
Li 2.4374493165 0.5560375932 29.5385552413  
Li 4.8679489129 7.8225147058 30.2994491171  
Li 4.8680352729 4.6394966096 31.1659618214  
Li 4.8681737196 1.0261331982 32.0174604732  
Li 2.4391495597 8.3302692461 32.1991814756  
Li 2.4386357626 5.1581404402 33.2154000946  
Li 2.4389268689 1.5677122159 34.2254013065  
Li 4.8482228377 9.5502146685 19.9874643447  
Li 4.8483565031 5.5537099501 20.7856851633  
Li 4.8481085921 1.8950818897 21.2850424255  
Li 4.8678627854 -0.6341225342 34.5724436514  
Li 7.2771592268 7.3483813300 20.3345066654  
Li 7.2774512965 3.7579555610 21.3445102525  
Li 7.2769385058 0.5858242627 22.3607280220  
Li 9.7059583155 7.8899602203 22.5424472715  
Li 9.7060970451 4.2765958993 23.3939474008  
Li 9.7061840901 1.0935780989 24.2604602803  
Li 7.2786416132 8.3600580351 25.0213541475  
Li 7.2810694792 5.0388284512 25.8971154011  
Li 7.2836063088 1.6268281111 26.7751865200  
Li 9.7178978097 8.8700973389 27.5332846181  
Li 9.7210423933 5.5936576813 28.2437734215  
Li 9.7233789551 2.2720845344 29.2097572772  
Li 7.2963281602 9.5696093030 29.7043136005  
Li 7.2969589077 6.1318306038 30.4504983365  
Li 7.2972130175 2.7951494742 31.5128948803  
Li 9.7263213764 10.0098319382 32.3063290723  
Li 9.7260231964 7.0210117910 33.2748646753  
Li 9.7257741289 3.3623809335 33.7742238088  
Li 7.2768332359 9.4941249049 22.2535796301  
Li 7.2769192273 6.1209460061 23.0470142326  
Li 7.2771736436 2.7842621255 24.1094125929  
Li 9.7068288196 9.9343478153 24.8555965535  
Li 9.7088010230 6.6440113741 25.3501505392  
Li 9.7111373863 3.3224409058 26.3161366936  
Li 9.7142822633 0.0459952887 27.0266247096  
Li 7.2905289744 7.2892649647 27.7847235133  
Li 7.2930663922 3.8772692066 28.6627923093  
Li 7.2954937369 0.5560374475 29.5385551152  
Li 9.7259931914 7.8225151866 30.2994487153  
Li 9.7260797928 4.6394959994 31.1659613084  
Li 9.7262182094 1.0261330935 32.0174603659  
Li 7.2971939868 8.3302694132 32.1991818967  
Li 7.2966797080 5.1581403610 33.2154005631  
Li 7.2969720460 1.5677122679 34.2254015236  
Li 9.7062669229 9.5502146023 19.9874642860  
Li 9.7064011288 5.5537102905 20.7856852162  
Li 9.7061530732 1.8950820725 21.2850422440  

