&CONTROL
   calculation      = 'scf'
   verbosity        = 'high'
   restart_mode     = 'from_scratch'
   nstep            = 999
   tstress          = .false.
   tprnfor          = .true.
   outdir           = './Li/'
   prefix           = 'Lithium'
   etot_conv_thr    = 1e-05
   forc_conv_thr    = 0.000388
   disk_io          = 'minimal'
   pseudo_dir       = '/home/mmm1182/Repos/Pseudopotentials/pslibrary'
/
&SYSTEM
   ibrav            = 12
   nbnd             = 99
   tot_charge       = 0.0
   ecutwfc          = 80.0
   ecutrho          = 800
   occupations      = 'smearing'
   degauss          = 0.01
   smearing         = 'cold'
   nspin            = 1
   input_dft        = 'pbe'
   lgcscf           = .true.
   gcscf_mu         = -3.904
   gcscf_conv_thr   = 0.001
   ntyp             = 1
   nat              = 44
   celldm(1)        = 18.360747
   celldm(2)        = 0.8660252146075195
   celldm(3)        = 5.240449
   celldm(4)        = -0.28867519765379973
/
&ELECTRONS
   electron_maxstep = 999
   scf_must_converge = .true.
   conv_thr         = 1e-14
   mixing_mode      = 'local-TF'
   mixing_beta      = 0.2
   diagonalization  = 'david'
   diago_thr_init   = 1e-12
   diago_david_ndim = 4
   diago_full_acc   = .true.
   startingwfc      = 'random'
/
&IONS
   ion_dynamics     = 'bfgs'
   upscale          = 1000000.0
   bfgs_ndim        = 1
/
&CELL
   press_conv_thr   = 0.1
   cell_dofree      = 'all'
/
&FCP
/
&RISM
/
ATOMIC_SPECIES
Li 6.94 Li.pbe-sl-kjpaw_psl.1.0.0.UPF

K_POINTS automatic
7 8 1  0 0 0

ATOMIC_POSITIONS angstrom
Li -2.4293209261 6.9155424518 19.5786692630  
Li 2.4279115853 2.6026767189 30.9285319384  
Li -0.0001359967 4.6173318973 29.4482015144  
Li 2.4292935169 6.5280756194 28.2792880343  
Li 2.4285543977 0.8082024327 27.1986674245  
Li -0.0000257133 2.9606696473 26.3213544561  
Li 2.4291489946 5.0663215881 25.2705063507  
Li -0.0001537344 7.2885918394 24.1675816859  
Li 0.0002973131 1.5636327911 22.8826841375  
Li 2.4289191936 3.6593152376 21.9827227622  
Li -0.0000423814 5.5251751457 21.2268852642  
Li 0.0001031442 1.4673288965 28.9339412102  
Li 2.4287266097 3.5629889196 28.0339949156  
Li 0.0001506981 5.8941829312 26.7490999121  
Li 2.4288942830 8.1164523266 25.6461719665  
Li 2.4290501788 2.1659554749 24.5953145479  
Li 0.0004668768 4.3184420294 23.7179900527  
Li 2.4287488187 6.6547261766 22.6374027428  
Li 2.4291592891 0.5093263627 21.4684938278  
Li 0.0011114921 2.5239717425 19.9881697383  
Li 2.4293188714 6.2673133802 31.3380250005  
Li 0.0000385290 7.6576439542 29.6897771953  
Li 2.4287235734 6.9155416887 19.5786697241  
Li 7.2859560322 2.6026765992 30.9285320842  
Li 4.8579087380 4.6173319965 29.4482018985  
Li 7.2873379143 6.5280753292 28.2792879201  
Li 7.2865987957 0.8082016357 27.1986675482  
Li 4.8580185576 2.9606695701 26.3213541135  
Li 7.2871935222 5.0663217753 25.2705059752  
Li 4.8578906169 7.2885915767 24.1675817777  
Li 4.8583417045 1.5636328476 22.8826844272  
Li 7.2869636694 3.6593149685 21.9827231084  
Li 4.8580024769 5.5251747660 21.2268851691  
Li 4.8581474162 1.4673291735 28.9339411026  
Li 7.2867707889 3.5629885886 28.0339950856  
Li 4.8581953771 5.8941826298 26.7491001008  
Li 7.2869385903 8.1164525938 25.6461719735  
Li 7.2870950333 2.1659549329 24.5953148180  
Li 4.8585109387 4.3184418763 23.7179901858  
Li 7.2867930139 6.6547263421 22.6374023572  
Li 7.2872033768 0.5093259568 21.4684942836  
Li 4.8591562445 2.5239710078 19.9881699499  
Li 7.2873643278 6.2673142115 31.3380251610  
Li 4.8580828870 7.6576439217 29.6897781164  

