&CONTROL
   calculation      = 'scf'
   verbosity        = 'high'
   restart_mode     = 'from_scratch'
   nstep            = 999
   tstress          = .false.
   tprnfor          = .true.
   outdir           = './Li/'
   prefix           = 'Lithium'
   etot_conv_thr    = 1e-05
   forc_conv_thr    = 0.000388
   disk_io          = 'minimal'
   pseudo_dir       = '/work/e89/e89/ba3g18/Repos/Pseudopotentials/Pslibrary'
/
&SYSTEM
   ibrav            = 8
   nbnd             = 99
   tot_charge       = 0.0
   ecutwfc          = 80.0
   ecutrho          = 800
   occupations      = 'smearing'
   degauss          = 0.01
   smearing         = 'cold'
   nspin            = 1
   input_dft        = 'pbe'
   lgcscf           = .true.
   gcscf_mu         = -2.904
   gcscf_conv_thr   = 0.001
   ntyp             = 1
   nat              = 44
   celldm(1)        = 18.360747
   celldm(2)        = 0.586302
   celldm(3)        = 5.699811
/
&ELECTRONS
   electron_maxstep = 999
   scf_must_converge = .true.
   conv_thr         = 1e-14
   mixing_mode      = 'local-TF'
   mixing_beta      = 0.2
   diagonalization  = 'david'
   diago_thr_init   = 1e-12
   diago_david_ndim = 4
   diago_full_acc   = .true.
   startingwfc      = 'random'
/
&IONS
   ion_dynamics     = 'bfgs'
   upscale          = 1000000.0
   bfgs_ndim        = 1
/
&CELL
   press_conv_thr   = 0.1
   cell_dofree      = 'all'
/
&FCP
/
&RISM
/
ATOMIC_SPECIES
Li 6.94 Li.pbe-sl-kjpaw_psl.1.0.0.UPF

K_POINTS automatic
7 12 1  0 0 0

ATOMIC_POSITIONS angstrom
Li 4.8580444204 5.4592024606 35.4708873823  
Li 2.4289597586 4.3794711267 19.9091189015  
Li 2.4290371071 1.0227174450 21.8109958073  
Li 4.8580444204 2.1885714905 20.5265295642  
Li -0.0000000000 4.9583633035 21.9187530640  
Li 4.8580444204 1.8989643517 23.5593624959  
Li 2.4290447623 3.1422841944 25.8148479216  
Li 2.4290148258 5.7054972371 27.5462992335  
Li 2.4290366874 3.6808765666 22.8362933228  
Li 2.4290077470 0.4629962853 24.6422030689  
Li -0.0000000000 4.5662412756 24.9051671165  
Li 4.8580444204 1.4562425150 26.5688868420  
Li 4.8580444204 4.1340526353 27.8333371013  
Li 4.8580444204 1.0006459355 29.5650231153  
Li 2.4289903946 5.2732605359 30.4747811102  
Li 2.4290263646 2.2439765742 31.8204742488  
Li 2.4290439749 2.6866846795 28.8109687469  
Li -0.0000000000 3.6799136100 30.7379358402  
Li 4.8580444204 0.4621094217 32.5436717538  
Li 4.8580444204 3.1204926246 33.5681557397  
Li 2.4288393437 4.8811572621 33.4611614763  
Li 2.4298500908 1.9544166124 34.8532947053  
Li 9.7160888407 5.4608694127 35.4705529963  
Li 7.2871290821 4.3794711267 19.9091189015  
Li 7.2870517336 1.0227174450 21.8109958073  
Li 9.7160888407 2.1885270860 20.5265628780  
Li 4.8580444204 4.9583629946 21.9186021866  
Li 9.7160888407 1.8990038952 23.5593658388  
Li 7.2870440785 3.1422841944 25.8148479216  
Li 7.2870740150 5.7054972371 27.5462992335  
Li 7.2870521534 3.6808765666 22.8362933228  
Li 7.2870810937 0.4629962853 24.6422030689  
Li 4.8580444204 4.5662709167 24.9049518720  
Li 9.7160888407 1.4562937700 26.5688548315  
Li 9.7160888407 4.1339805832 27.8337359810  
Li 9.7160888407 1.0006884433 29.5649545091  
Li 7.2870984461 5.2732605359 30.4747811102  
Li 7.2870624762 2.2439765742 31.8204742488  
Li 7.2870448658 2.6866846795 28.8109687469  
Li 4.8580444204 3.6800015798 30.7373252809  
Li 9.7160888407 0.4620407970 32.5434160505  
Li 9.7160888407 3.1199787258 33.5695199459  
Li 7.2872494971 4.8811572621 33.4611614763  
Li 7.2862387499 1.9544166124 34.8532947053  

