&CONTROL
   calculation      = 'scf'
   verbosity        = 'high'
   restart_mode     = 'from_scratch'
   nstep            = 999
   tstress          = .false.
   tprnfor          = .true.
   outdir           = './Li/'
   prefix           = 'Lithium'
   etot_conv_thr    = 1e-05
   forc_conv_thr    = 0.000388
   disk_io          = 'minimal'
   pseudo_dir       = '/work/e89/e89/ba3g18/Repos/Pseudopotentials/Pslibrary'
/
&SYSTEM
   ibrav            = 8
   nbnd             = 99
   tot_charge       = 0.0
   ecutwfc          = 80.0
   ecutrho          = 800
   occupations      = 'smearing'
   degauss          = 0.01
   smearing         = 'cold'
   nspin            = 1
   input_dft        = 'pbe'
   lgcscf           = .true.
   gcscf_mu         = -1.904
   gcscf_conv_thr   = 0.001
   ntyp             = 1
   nat              = 44
   celldm(1)        = 18.360747
   celldm(2)        = 0.586302
   celldm(3)        = 5.699811
/
&ELECTRONS
   electron_maxstep = 999
   scf_must_converge = .true.
   conv_thr         = 1e-14
   mixing_mode      = 'local-TF'
   mixing_beta      = 0.2
   diagonalization  = 'david'
   diago_thr_init   = 1e-12
   diago_david_ndim = 4
   diago_full_acc   = .true.
   startingwfc      = 'random'
/
&IONS
   ion_dynamics     = 'bfgs'
   upscale          = 1000000.0
   bfgs_ndim        = 1
/
&CELL
   press_conv_thr   = 0.1
   cell_dofree      = 'all'
/
&FCP
/
&RISM
/
ATOMIC_SPECIES
Li 6.94 Li.pbe-sl-kjpaw_psl.1.0.0.UPF

K_POINTS automatic
7 12 1  0 0 0

ATOMIC_POSITIONS angstrom
Li 4.8580444204 5.7344420323 35.1871952381  
Li 2.4289447057 4.1051933338 20.1924509228  
Li 2.4290196081 1.0701880416 21.5714544734  
Li 4.8580444204 2.2802393526 20.5230904082  
Li 0.0000000000 4.9689150121 21.9958711126  
Li 4.8580444204 1.9279636485 23.5048790664  
Li 2.4291260423 3.1005117603 26.0019693323  
Li 2.4289375760 5.7472926871 27.3937094564  
Li 2.4290884280 3.5973395137 23.0823628664  
Li 2.4289513485 0.5122134665 24.4453594963  
Li 0.0000000000 4.5416671392 25.0169348124  
Li 4.8580444204 1.4835083318 26.4444570824  
Li 4.8580444204 4.0918816391 27.9859211343  
Li 4.8580444204 1.0421772242 29.3778227994  
Li 2.4288513459 5.2977250519 30.3631827255  
Li 2.4292444201 2.2149329521 31.8750404699  
Li 2.4291589307 2.6591390381 28.9354753198  
Li 0.0000000000 3.6308513159 30.9348162507  
Li 4.8580444204 0.5455708552 32.2973175752  
Li 4.8580444204 3.0728658616 33.8077693225  
Li 2.4288161381 4.8708197585 33.3840864885  
Li 2.4292969412 1.8631348618 34.8568705229  
Li 9.7160888407 5.7348860996 35.1872345516  
Li 7.2871441350 4.1051933338 20.1924509228  
Li 7.2870692326 1.0701880416 21.5714544734  
Li 9.7160888407 2.2801310222 20.5230553026  
Li 4.8580444204 4.9689103160 21.9956346988  
Li 9.7160888407 1.9280033096 23.5048700712  
Li 7.2869627985 3.1005117603 26.0019693323  
Li 7.2871512648 5.7472926871 27.3937094564  
Li 7.2870004128 3.5973395137 23.0823628664  
Li 7.2871374922 0.5122134665 24.4453594963  
Li 4.8580444204 4.5415765201 25.0166075602  
Li 9.7160888407 1.4835523047 26.4444643261  
Li 9.7160888407 4.0920249748 27.9864507791  
Li 9.7160888407 1.0422619642 29.3778856824  
Li 7.2872374948 5.2977250519 30.3631827255  
Li 7.2868444207 2.2149329521 31.8750404699  
Li 7.2869299100 2.6591390381 28.9354753198  
Li 4.8580444204 3.6304205425 30.9341875501  
Li 9.7160888407 0.5455957709 32.2973138212  
Li 9.7160888407 3.0730666426 33.8087280092  
Li 7.2872727027 4.8708197585 33.3840864885  
Li 7.2867918995 1.8631348618 34.8568705229  

