&CONTROL
   calculation      = 'scf'
   verbosity        = 'high'
   restart_mode     = 'from_scratch'
   nstep            = 999
   tstress          = .false.
   tprnfor          = .true.
   outdir           = './Li/'
   prefix           = 'Li'
   etot_conv_thr    = 1e-05
   forc_conv_thr    = 1e-05
   disk_io          = 'none'
   pseudo_dir       = '/home/ba3g18/Repos/Pseudopotentials/pslibrary.1.0.0/pbe/PSEUDOPOTENTIALS'
/
&SYSTEM
   ibrav            = 4
   nbnd             = 108
   tot_charge       = 0.0
   ecutwfc          = 80.0
   ecutrho          = 800
   occupations      = 'smearing'
   degauss          = 0.01
   smearing         = 'cold'
   nspin            = 1
   input_dft        = 'pbe'
   ntyp             = 1
   nat              = 48
   celldm(1)        = 18.360746999913715
   celldm(3)        = 5.270331507148999
/
&ELECTRONS
   electron_maxstep = 999
   scf_must_converge = .true.
   conv_thr         = 1e-14
   mixing_mode      = 'local-TF'
   mixing_beta      = 0.2
   diagonalization  = 'david'
   startingwfc      = 'random'
/
&IONS
   ion_dynamics     = 'bfgs'
   upscale          = 1000000.0
   bfgs_ndim        = 6
/
&CELL
   press_conv_thr   = 0.1
   cell_dofree      = 'all'
/
&FCP
/
&RISM
/
ATOMIC_SPECIES
Li 6.94 Li.pbe-sl-kjpaw_psl.1.0.0.UPF

K_POINTS automatic
7 7 1  0 0 0

ATOMIC_POSITIONS angstrom
Li -0.0000000100 0.0000075958 25.0684673598  
Li 2.4290239760 1.4024547238 21.2883904996  
Li 4.8580444100 2.8048307549 23.0782440320  
Li 0.0000000100 0.0000489675 22.0283061261  
Li 2.4290227314 1.4024204013 24.1508064649  
Li 4.8580445000 2.8048446169 20.0813093474  
Li 0.0000000000 -0.0000666134 31.1256984917  
Li 2.4290226798 1.4023744828 27.0562178969  
Li 4.8580444100 2.8047406146 29.1787026762  
Li -0.0000000100 -0.0000395544 28.1287652914  
Li 2.4290239314 1.4023443811 29.9186385248  
Li 4.8580444200 2.8047835884 26.1385413998  
Li 2.4290212126 4.2072000287 25.0684691633  
Li 4.8580443900 5.6096375878 21.2883792711  
Li 7.2870655775 7.0120230928 23.0782452553  
Li 2.4290202639 4.2072435322 22.0283078230  
Li 4.8580444100 5.6096083237 24.1507978380  
Li 7.2870591350 7.0120531532 20.0813117541  
Li 2.4290154090 4.2071427080 31.1257010458  
Li 4.8580444000 5.6095623320 27.0562090042  
Li 7.2870649547 7.0119351500 29.1787041776  
Li 2.4290211781 4.2071529660 28.1287666006  
Li 4.8580444000 5.6095272235 29.9186263987  
Li 7.2870655596 7.0119761641 26.1385428815  
Li 4.8580444000 0.0000062943 25.0684682215  
Li 7.2870648440 1.4024547038 21.2883906496  
Li 9.7160888200 2.8048295411 23.0782446516  
Li 4.8580443900 0.0000470709 22.0283069006  
Li 7.2870660886 1.4024204013 24.1508065449  
Li 9.7160887400 2.8048362154 20.0813107688  
Li 4.8580444000 -0.0000742602 31.1256998892  
Li 7.2870661402 1.4023744828 27.0562179469  
Li 9.7160888300 2.8047384625 29.1787033906  
Li 4.8580444000 -0.0000405550 28.1287658737  
Li 7.2870648886 1.4023443711 29.9186385648  
Li 9.7160888200 2.8047825399 26.1385421158  
Li 7.2870675975 4.2072000387 25.0684691633  
Li 9.7160888400 5.6096398820 21.2883657622  
Li 12.1451120725 7.0120231028 23.0782452653  
Li 7.2870685461 4.2072435522 22.0283078330  
Li 9.7160888300 5.6096088529 24.1507879119  
Li 12.1451185150 7.0120532632 20.0813117641  
Li 7.2870734010 4.2071427180 31.1257010358  
Li 9.7160888300 5.6095631047 27.0561994938  
Li 12.1451126954 7.0119351500 29.1787041776  
Li 7.2870676419 4.2071529660 28.1287665906  
Li 9.7160888300 5.6095292045 29.9186138576  
Li 12.1451121004 7.0119761741 26.1385428815  

