&CONTROL
   calculation      = 'scf'
   verbosity        = 'high'
   restart_mode     = 'from_scratch'
   nstep            = 999
   tstress          = .false.
   tprnfor          = .true.
   outdir           = './Li/'
   prefix           = 'Lithium'
   etot_conv_thr    = 1e-05
   forc_conv_thr    = 0.000388
   disk_io          = 'minimal'
   pseudo_dir       = '/work/e89/e89/ba3g18/Repos/Pseudopotentials/Pslibrary'
/
&SYSTEM
   ibrav            = 8
   nbnd             = 99
   tot_charge       = 0.0
   ecutwfc          = 80.0
   ecutrho          = 800
   occupations      = 'smearing'
   degauss          = 0.01
   smearing         = 'cold'
   nspin            = 1
   input_dft        = 'pbe'
   lgcscf           = .true.
   gcscf_mu         = -3.404
   gcscf_conv_thr   = 0.001
   ntyp             = 1
   nat              = 44
   celldm(1)        = 18.360747
   celldm(2)        = 0.586302
   celldm(3)        = 5.699811
/
&ELECTRONS
   electron_maxstep = 999
   scf_must_converge = .true.
   conv_thr         = 1e-14
   mixing_mode      = 'local-TF'
   mixing_beta      = 0.2
   diagonalization  = 'david'
   diago_thr_init   = 1e-12
   diago_david_ndim = 4
   diago_full_acc   = .true.
   startingwfc      = 'random'
/
&IONS
   ion_dynamics     = 'bfgs'
   upscale          = 1000000.0
   bfgs_ndim        = 1
/
&CELL
   press_conv_thr   = 0.1
   cell_dofree      = 'all'
/
&FCP
/
&RISM
/
ATOMIC_SPECIES
Li 6.94 Li.pbe-sl-kjpaw_psl.1.0.0.UPF

K_POINTS automatic
7 12 1  0 0 0

ATOMIC_POSITIONS angstrom
Li 4.8580444204 5.3468922609 35.5816762255  
Li 2.4289760809 4.4920634752 19.7983026234  
Li 2.4290319521 1.0035816462 21.8732861085  
Li 4.8580444204 2.1265714995 20.4526004041  
Li -0.0000000000 4.9229708084 21.9450050512  
Li 4.8580444204 1.8976950334 23.5501392016  
Li 2.4290489035 3.1175537891 25.7760113680  
Li 2.4290084772 5.6840050704 27.5276267085  
Li 2.4290326718 3.6844395446 22.7962091041  
Li 2.4290058124 0.4341637726 24.6516350940  
Li -0.0000000000 4.5646126770 24.9317168196  
Li 4.8580444204 1.4687869969 26.5905434443  
Li 4.8580444204 4.1555296184 27.8520364331  
Li 4.8580444204 1.0253830512 29.6038516558  
Li 2.4289884786 5.2748960481 30.4482014154  
Li 2.4290318296 2.2452525077 31.8296975539  
Li 2.4290457121 2.6741373498 28.7893105853  
Li -0.0000000000 3.7087617337 30.7284248700  
Li 4.8580444204 0.4585925697 32.5837095501  
Li 4.8580444204 3.1395946600 33.5060282157  
Li 2.4289063868 4.9165622083 33.4348945213  
Li 2.4296270331 2.0164025199 34.9272330753  
Li 9.7160888407 5.3479773118 35.5814729771  
Li 7.2871127599 4.4920634752 19.7983026234  
Li 7.2870568887 1.0035816462 21.8732861085  
Li 9.7160888407 2.1265382278 20.4526269667  
Li 4.8580444204 4.9229565930 21.9448921387  
Li 9.7160888407 1.8977279000 23.5501328366  
Li 7.2870399372 3.1175537891 25.7760113680  
Li 7.2870803636 5.6840050704 27.5276267085  
Li 7.2870561689 3.6844395446 22.7962091041  
Li 7.2870830283 0.4341637726 24.6516350940  
Li 4.8580444204 4.5646328295 24.9315576736  
Li 9.7160888407 1.4688303636 26.5905027072  
Li 9.7160888407 4.1554738120 27.8523737415  
Li 9.7160888407 1.0254061372 29.6037891264  
Li 7.2871003621 5.2748960481 30.4482014154  
Li 7.2870570112 2.2452525077 31.8296975539  
Li 7.2870431286 2.6741373498 28.7893105853  
Li 4.8580444204 3.7088162069 30.7279651960  
Li 9.7160888407 0.4584368825 32.5835437926  
Li 9.7160888407 3.1391915643 33.5070237700  
Li 7.2871824539 4.9165622083 33.4348945213  
Li 7.2864618077 2.0164025199 34.9272330753  

