&CONTROL
   calculation      = 'scf'
   verbosity        = 'high'
   restart_mode     = 'from_scratch'
   nstep            = 999
   tstress          = .false.
   tprnfor          = .true.
   outdir           = './Li/'
   prefix           = 'Lithium'
   etot_conv_thr    = 1e-05
   forc_conv_thr    = 0.000388
   disk_io          = 'minimal'
   pseudo_dir       = '/work/e89/e89/ba3g18/Repos/Pseudopotentials/Pslibrary'
/
&SYSTEM
   ibrav            = 12
   nbnd             = 171
   tot_charge       = 0.0
   ecutwfc          = 80.0
   ecutrho          = 800
   occupations      = 'smearing'
   degauss          = 0.01
   smearing         = 'cold'
   nspin            = 1
   input_dft        = 'pbe'
   lgcscf           = .true.
   gcscf_mu         = -1.904
   gcscf_conv_thr   = 0.001
   ntyp             = 1
   nat              = 76
   celldm(1)        = 18.360747
   celldm(2)        = 1.1180342461771913
   celldm(3)        = 5.615419
   celldm(4)        = 0.22360674626453153
/
&ELECTRONS
   electron_maxstep = 999
   scf_must_converge = .true.
   conv_thr         = 1e-14
   mixing_mode      = 'local-TF'
   mixing_beta      = 0.2
   diagonalization  = 'david'
   diago_thr_init   = 1e-12
   diago_david_ndim = 4
   diago_full_acc   = .true.
   startingwfc      = 'random'
/
&IONS
   ion_dynamics     = 'bfgs'
   upscale          = 1000000.0
   bfgs_ndim        = 1
/
&CELL
   press_conv_thr   = 0.1
   cell_dofree      = 'all'
/
&FCP
/
&RISM
/
ATOMIC_SPECIES
Li 6.94 Li.pbe-sl-kjpaw_psl.1.0.0.UPF

K_POINTS automatic
7 6 1  0 0 0

ATOMIC_POSITIONS angstrom
Li 0.0104073456 -0.0051276926 34.3972986123  
Li 2.4185915156 7.1357141021 20.4402701764  
Li 2.4184348167 3.9266214547 21.2030480471  
Li 2.4184719991 0.6448483468 22.0256647763  
Li 4.8469448326 7.7451336558 22.8111206451  
Li 4.8471523437 4.4324728138 23.4071904904  
Li 4.8476627343 1.1287802071 24.2342605209  
Li 2.4198838554 8.3800917298 25.0969360190  
Li 2.4223698142 5.0221304619 25.9265455609  
Li 2.4261639969 1.6738048508 26.6822413920  
Li 4.8590873401 8.8971050517 27.4919581534  
Li 4.8632920991 5.5407890443 28.3367799868  
Li 4.8660317339 2.2943074247 29.0067096818  
Li 2.4386004721 9.4782499005 29.8545049431  
Li 2.4396233698 6.0826478016 30.6166405144  
Li 2.4399977773 2.7994074817 31.3594425415  
Li 4.8687711302 10.0228503021 32.3186430737  
Li 4.8685595854 6.7225838671 33.1911022662  
Li 4.8684857777 3.3216326434 33.8724505120  
Li 2.4183040135 9.4761258455 22.2371319520  
Li 2.4180170964 6.1190583709 23.2020064329  
Li 2.4184012792 2.8269837739 23.9411850316  
Li 4.8483147946 10.0265413736 24.7051054331  
Li 4.8501881851 6.6312576491 25.5585123813  
Li 4.8530219688 3.3711609785 26.2210795259  
Li 4.8568980238 0.0263062716 27.0675770781  
Li 2.4317974566 7.2449227295 27.8776947320  
Li 2.4359677013 3.8952318667 28.6291795404  
Li 2.4381671332 0.5387077412 29.4644161593  
Li 4.8683134299 7.7804686981 30.3238919635  
Li 4.8689290813 4.4881452350 31.1638265899  
Li 4.8690952476 1.1751214593 31.7471513032  
Li 2.4395370924 8.2628323885 32.5305054452  
Li 2.4395615846 4.9893454742 33.3582830911  
Li 2.4393704231 1.7761738095 34.1166872236  
Li 4.8475763782 8.9220306907 20.1494105898  
Li 4.8475354727 5.5986098031 20.7006916708  
Li 4.8475086020 2.1883669146 21.3709210872  
Li 4.8684323951 -0.0051824713 34.3972766294  
Li 7.2766863876 7.1357272168 20.4402694762  
Li 7.2764489558 3.9266091248 21.2030515737  
Li 7.2765297532 0.6448726447 22.0256951009  
Li 9.7049867040 7.7451346683 22.8110891080  
Li 9.7052089507 4.4325135520 23.4072280436  
Li 9.7056731228 1.1287678113 24.2343270134  
Li 7.2779352914 8.3800955745 25.0969098202  
Li 7.2804434522 5.0221409570 25.9265562932  
Li 7.2841959690 1.6737570215 26.6822182867  
Li 9.7171696414 8.8971234711 27.4920076017  
Li 9.7213218297 5.5407906325 28.3368000664  
Li 9.7241121795 2.2943642849 29.0067205323  
Li 7.2967139887 9.4782801825 29.8544961526  
Li 7.2976601739 6.0826430325 30.6166072931  
Li 7.2980622309 2.7993861863 31.3594514457  
Li 9.7267653132 10.0228884684 32.3186113901  
Li 9.7266079761 6.7225974666 33.1911841246  
Li 9.7265656189 3.3215883080 33.8724838173  
Li 7.2763674789 9.4761838376 22.2370626235  
Li 7.2760689860 6.1190514512 23.2020018117  
Li 7.2764661581 2.8269896958 23.9412091040  
Li 9.7063889867 10.0264924772 24.7051261910  
Li 9.7082812623 6.6312812300 25.5585159452  
Li 9.7110203855 3.3711323621 26.2210971031  
Li 9.7149133856 0.0263312736 27.0676211669  
Li 7.2898710394 7.2449331886 27.8776701946  
Li 7.2939964731 3.8951670103 28.6291578484  
Li 7.2962175641 0.5387385537 29.4643558987  
Li 9.7263491936 7.7804504415 30.3239305847  
Li 9.7269862612 4.4882500285 31.1638760313  
Li 9.7272264815 1.1751075979 31.7471431500  
Li 7.2976225431 8.2628148827 32.5304797993  
Li 7.2977068988 4.9893436925 33.3583158992  
Li 7.2973554168 1.7761840407 34.1167677182  
Li 9.7056243557 8.9220986971 20.1494468513  
Li 9.7056020442 5.5985969220 20.7007303655  
Li 9.7055467795 2.1883507439 21.3709814864  

