&CONTROL
   calculation      = 'relax'
   verbosity        = 'high'
   restart_mode     = 'from_scratch'
   nstep            = 999
   tstress          = .false.
   tprnfor          = .true.
   outdir           = './Li/'
   prefix           = 'Lithium'
   etot_conv_thr    = 1e-05
   forc_conv_thr    = 0.000388
   disk_io          = 'minimal'
   pseudo_dir       = '/work/e89/e89/ba3g18/Repos/Pseudopotentials/Pslibrary'
/
&SYSTEM
   ibrav            = 12
   nbnd             = 81
   tot_charge       = 0.0
   ecutwfc          = 80.0
   ecutrho          = 800
   occupations      = 'smearing'
   degauss          = 0.01
   smearing         = 'cold'
   nspin            = 1
   input_dft        = 'pbe'
   lgcscf           = .true.
   gcscf_mu         = -2.904
   gcscf_conv_thr   = 0.001
   ntyp             = 1
   nat              = 36
   celldm(1)        = 18.360747
   celldm(2)        = 0.7905694150420948
   celldm(3)        = 5.12718
   celldm(4)        = 0.31622776601683794
/
&ELECTRONS
   electron_maxstep = 999
   scf_must_converge = .true.
   conv_thr         = 1e-06
   mixing_mode      = 'local-TF'
   mixing_beta      = 0.2
   diagonalization  = 'david'
   diago_thr_init   = 1e-12
   diago_david_ndim = 4
   diago_full_acc   = .true.
   startingwfc      = 'random'
/
&IONS
   ion_dynamics     = 'bfgs'
   upscale          = 1000000.0
   bfgs_ndim        = 1
/
&CELL
   press_conv_thr   = 0.1
   cell_dofree      = 'all'
/
&FCP
/
&RISM
/
ATOMIC_SPECIES
Li 6.94 Li.pbe-sl-kjpaw_psl.1.0.0.UPF

K_POINTS automatic
7 9 1  0 0 0

ATOMIC_POSITIONS angstrom
Li 0.0022041699 -0.8874808357 30.0443045326  
Li 2.4272046387 3.9985042770 20.4316248721  
Li 2.4274882328 0.7570939406 22.3055019158  
Li 4.8563582286 4.8762063244 22.5616385105  
Li 4.8570142516 1.5511636693 24.1500967475  
Li 2.4295205095 5.8214095782 24.8810675994  
Li 2.4301698409 2.3352336947 26.3738370255  
Li 4.8599920471 6.4956973831 27.7546574183  
Li 4.8603433192 3.5978281512 28.7177672267  
Li 2.4270931671 6.4591043927 22.0614210150  
Li 2.4278804012 3.3324961930 23.4421688364  
Li 4.8575043510 7.1333185129 24.9350094558  
Li 4.8590532180 4.1165443648 25.6660322818  
Li 4.8597373525 0.7915422022 27.2544648815  
Li 2.4305618356 4.9105842273 27.5106377598  
Li 2.4308942399 1.6692852277 29.3843999622  
Li 4.8559660526 6.5552003439 19.7718449037  
Li 4.8557673168 2.0699206062 21.0983723291  
Li 4.8599820214 -0.8875189826 30.0442784440  
Li 7.2852325524 3.9984877407 20.4317095743  
Li 7.2855525238 0.7571419932 22.3054926344  
Li 9.7144142743 4.8761990039 22.5616831708  
Li 9.7150942934 1.5511943741 24.1500746412  
Li 7.2876171896 5.8214569385 24.8811264454  
Li 7.2882570149 2.3352196048 26.3739350252  
Li 9.7180027301 6.4956601223 27.7546747386  
Li 9.7183047934 3.5977553070 28.7178191725  
Li 7.2851455252 6.4590954974 22.0615078298  
Li 7.2858809708 3.3325103456 23.4422803053  
Li 9.7155684210 7.1333962104 24.9350680656  
Li 9.7171104331 4.1165495324 25.6660597187  
Li 9.7177621666 0.7914954871 27.2544789970  
Li 7.2885839635 4.9105999660 27.5106546010  
Li 7.2888422681 1.6691545928 29.3844840456  
Li 9.7140023009 6.5552065346 19.7718554895  
Li 9.7138527391 2.0699476863 21.0983537853  

