&CONTROL
   calculation      = 'scf'
   verbosity        = 'high'
   restart_mode     = 'from_scratch'
   nstep            = 999
   tstress          = .false.
   tprnfor          = .true.
   outdir           = './Li/'
   prefix           = 'Lithium'
   etot_conv_thr    = 1e-05
   forc_conv_thr    = 0.000388
   disk_io          = 'minimal'
   pseudo_dir       = '/work/e89/e89/ba3g18/Repos/Pseudopotentials/Pslibrary'
/
&SYSTEM
   ibrav            = 12
   nbnd             = 153
   tot_charge       = 0.0
   ecutwfc          = 80.0
   ecutrho          = 800
   occupations      = 'smearing'
   degauss          = 0.01
   smearing         = 'cold'
   nspin            = 1
   input_dft        = 'pbe'
   lgcscf           = .true.
   gcscf_mu         = -1.654
   gcscf_conv_thr   = 0.001
   ntyp             = 1
   nat              = 68
   celldm(1)        = 18.360747
   celldm(2)        = 1.0606597768257267
   celldm(3)        = 5.518976
   celldm(4)        = -0.23570234816312513
/
&ELECTRONS
   electron_maxstep = 999
   scf_must_converge = .true.
   conv_thr         = 1e-14
   mixing_mode      = 'local-TF'
   mixing_beta      = 0.2
   diagonalization  = 'david'
   diago_thr_init   = 1e-12
   diago_david_ndim = 4
   diago_full_acc   = .true.
   startingwfc      = 'random'
/
&IONS
   ion_dynamics     = 'bfgs'
   upscale          = 1000000.0
   bfgs_ndim        = 1
/
&CELL
   press_conv_thr   = 0.1
   cell_dofree      = 'all'
/
&FCP
/
&RISM
/
ATOMIC_SPECIES
Li 6.94 Li.pbe-sl-kjpaw_psl.1.0.0.UPF

K_POINTS automatic
7 7 1  0 0 0

ATOMIC_POSITIONS angstrom
Li -0.0024868725 0.0842919342 20.0846948202  
Li 0.0018745663 5.9102621000 33.1973663925  
Li 2.4310817171 7.6093501019 31.7740059631  
Li 2.4317750120 1.8226954391 32.2911703744  
Li 0.0019793530 3.5721982040 30.6802362416  
Li 2.4306007088 5.3018772523 29.1822503803  
Li 2.4285406435 8.8020534243 25.8706289729  
Li 0.0020589226 9.4602345126 29.9427862825  
Li 0.0010282825 1.1733270222 28.2915766523  
Li 2.4288375181 2.9386146637 26.5915177586  
Li -0.0016006905 4.7321893973 24.8117766078  
Li 2.4271954881 6.4195650187 23.2675727950  
Li 0.0003538496 7.0950237819 27.4014594611  
Li 2.4273992211 0.5686332294 24.1526257258  
Li -0.0025207524 2.3903395461 22.3591443363  
Li 2.4269114098 3.9891936679 20.7558719090  
Li -0.0020385983 8.3022420759 21.4963157658  
Li 0.0024502667 0.5553070480 31.2636984260  
Li 0.0018365018 6.5411569654 30.3553092516  
Li 2.4306212932 8.2285158061 28.8111034253  
Li 2.4306437935 2.3769459864 29.4702597416  
Li 0.0004726403 4.1586384430 27.7522289179  
Li 2.4286681142 5.8656441252 26.2214143204  
Li 2.4270390318 9.3885342367 22.9426209508  
Li 0.0001843357 10.0220402540 27.0313596357  
Li -0.0010732289 1.7722680495 25.3312513596  
Li 2.4269642510 3.5004695874 23.6801024304  
Li -0.0020609264 5.3514232630 21.8488663254  
Li 2.4271519749 7.0505138266 20.4255262972  
Li -0.0015764675 7.6588183594 24.4406257578  
Li 2.4262704725 1.1229699997 21.3317643666  
Li 0.0026110977 2.8614226799 33.5381716762  
Li 2.4310683698 4.6585244952 32.1265625798  
Li 0.0020965163 8.9715790092 32.8669962677  
Li 4.8553846371 0.0842263284 20.0846966735  
Li 4.8599452977 5.9102281129 33.1974168579  
Li 7.2891968271 7.6093532632 31.7740054726  
Li 7.2898313666 1.8226987413 32.2912861710  
Li 4.8599954068 3.5721984310 30.6802276938  
Li 7.2886082671 5.3018794188 29.1822086828  
Li 7.2866353406 8.8020684188 25.8706378228  
Li 4.8600968568 9.4602537226 29.9426867258  
Li 4.8591199985 1.1733301111 28.2915904647  
Li 7.2869006377 2.9386306958 26.5915787991  
Li 4.8564153158 4.7321941175 24.8117614118  
Li 7.2852051094 6.4195491528 23.2675092418  
Li 4.8584146476 7.0950339534 27.4015058184  
Li 7.2854360459 0.5686690600 24.1524489208  
Li 4.8556167375 2.3903371442 22.3591459521  
Li 7.2849828440 3.9892881979 20.7559521119  
Li 4.8560042103 8.3022689283 21.4963523277  
Li 4.8605429112 0.5553070935 31.2637045599  
Li 4.8598940610 6.5411910290 30.3553736416  
Li 7.2886960263 8.2285277990 28.8111069483  
Li 7.2886991600 2.3769613243 29.4703392456  
Li 4.8584857274 4.1586258953 27.7522088674  
Li 7.2866957955 5.8656469673 26.2213684256  
Li 7.2851195504 9.3885410636 22.9426173002  
Li 4.8582124336 10.0220488175 27.0312266577  
Li 4.8570143082 1.7722746555 25.3312605138  
Li 7.2850133428 3.5004932710 23.6801619568  
Li 4.8559136376 5.3514094405 21.8488416632  
Li 7.2851601016 7.0505823081 20.4254837139  
Li 4.8564999897 7.6588527574 24.4406732392  
Li 7.2842996246 1.1229630958 21.3314984264  
Li 4.8605776947 2.8613852682 33.5381626584  
Li 7.2890993694 4.6585095347 32.1265264981  
Li 4.8601380870 8.9715169941 32.8668837987  

