&CONTROL
   calculation      = 'relax'
   verbosity        = 'high'
   restart_mode     = 'from_scratch'
   nstep            = 999
   tstress          = .false.
   tprnfor          = .true.
   outdir           = './Li/'
   prefix           = 'Lithium'
   etot_conv_thr    = 1e-05
   forc_conv_thr    = 0.000388
   disk_io          = 'minimal'
   pseudo_dir       = '/work/e89/e89/ba3g18/Repos/Pseudopotentials/Pslibrary'
/
&SYSTEM
   ibrav            = 12
   nbnd             = 153
   tot_charge       = 0.0
   ecutwfc          = 80.0
   ecutrho          = 800
   occupations      = 'smearing'
   degauss          = 0.01
   smearing         = 'cold'
   nspin            = 1
   input_dft        = 'pbe'
   lgcscf           = .true.
   gcscf_mu         = -3.404
   gcscf_conv_thr   = 0.001
   ntyp             = 1
   nat              = 68
   celldm(1)        = 18.360747
   celldm(2)        = 1.0606597768257267
   celldm(3)        = 5.518976
   celldm(4)        = -0.23570234816312513
/
&ELECTRONS
   electron_maxstep = 999
   scf_must_converge = .true.
   conv_thr         = 1e-06
   mixing_mode      = 'local-TF'
   mixing_beta      = 0.2
   diagonalization  = 'david'
   diago_thr_init   = 1e-12
   diago_david_ndim = 4
   diago_full_acc   = .true.
   startingwfc      = 'random'
/
&IONS
   ion_dynamics     = 'bfgs'
   upscale          = 1000000.0
   bfgs_ndim        = 1
/
&CELL
   press_conv_thr   = 0.1
   cell_dofree      = 'all'
/
&FCP
/
&RISM
/
ATOMIC_SPECIES
Li 6.94 Li.pbe-sl-kjpaw_psl.1.0.0.UPF

K_POINTS automatic
7 7 1  0 0 0

ATOMIC_POSITIONS angstrom
Li -0.0031384619 0.5756870569 19.8772215599  
Li 0.0025715116 5.8432553873 33.4555566148  
Li 2.4311277158 7.7181622566 31.7171248990  
Li 2.4323862834 1.9031584794 31.9471361627  
Li 0.0025731593 3.5435154870 30.8476810225  
Li 2.4299913088 5.3807018898 29.0814381951  
Li 2.4285747330 8.8321417382 25.7429949876  
Li 0.0024239001 9.3835038116 30.1333478140  
Li 0.0012567082 1.1864519804 28.2583309087  
Li 2.4283457187 3.0007999677 26.4115918052  
Li -0.0015816634 4.6807763809 24.8956087447  
Li 2.4274124195 6.4722846169 23.0754716773  
Li 0.0004710482 7.0321016150 27.5287462024  
Li 2.4272993805 0.5001930557 24.3693946138  
Li -0.0032842279 2.3446125723 22.4745987520  
Li 2.4271812524 3.7376529441 20.4549410082  
Li -0.0024842661 8.2217424123 21.6925600767  
Li 0.0031831803 0.6010289077 31.1482630657  
Li 0.0016146410 6.4884554528 30.5473908594  
Li 2.4305974708 8.2799531284 28.7272591179  
Li 2.4307426722 2.4453951559 29.2535632618  
Li 0.0004380544 4.1285903221 27.8798702629  
Li 2.4285538067 5.9286322492 26.0941075311  
Li 2.4264421861 9.4172201596 22.7751889794  
Li 0.0006739866 9.9599210936 27.2113371918  
Li -0.0012823067 1.7591636732 25.3645196779  
Li 2.4266022972 3.5772277074 23.4895543275  
Li -0.0020919881 5.2425908394 21.9057455141  
Li 2.4264578925 7.1174425779 20.1672900592  
Li -0.0009714796 7.5800208873 24.5414025882  
Li 2.4256572912 1.0424967351 21.6759064174  
Li 0.0037670944 2.3699919137 33.7456448136  
Li 2.4315208677 4.7390306103 31.9302680081  
Li 0.0018233347 9.2230201947 33.1679409910  
Li 4.8540448612 0.5756101876 19.8772252469  
Li 4.8607178499 5.8431947256 33.4556124778  
Li 7.2892412928 7.7181820432 31.7171200753  
Li 7.2904316521 1.9032242288 31.9474110546  
Li 4.8605898142 3.5435256146 30.8476652859  
Li 7.2880049984 5.3807026368 29.0813587004  
Li 7.2866488806 8.8321486412 25.7430133695  
Li 4.8604657909 9.3835483661 30.1332857866  
Li 4.8593251074 1.1864601504 28.2583416605  
Li 7.2864044091 3.0008005693 26.4116411763  
Li 4.8564585903 4.6807851434 24.8955919625  
Li 7.2854322587 6.4722261473 23.0753902790  
Li 4.8585301754 7.0321069970 27.5288192849  
Li 7.2853316277 0.5002700033 24.3690660852  
Li 4.8549041677 2.3445887745 22.4745985594  
Li 7.2852639716 3.7379169591 20.4549842425  
Li 4.8555341176 8.2216097073 21.6927522702  
Li 4.8612944700 0.6010190465 31.1482631599  
Li 4.8596703790 6.4885091506 30.5474716502  
Li 7.2886615497 8.2799551180 28.7272663958  
Li 7.2887977640 2.4453878376 29.2537007724  
Li 4.8584667786 4.1285910461 27.8798464228  
Li 7.2865807113 5.9286309142 26.0940534747  
Li 7.2845265836 9.4172129172 22.7751885940  
Li 4.8587039084 9.9599507023 27.2111541424  
Li 4.8567839372 1.7591782459 25.3645318674  
Li 7.2846464060 3.5771958217 23.4895351391  
Li 4.8558544306 5.2425359198 21.9057333961  
Li 7.2843766897 7.1175776712 20.1672624158  
Li 4.8571046557 7.5800425140 24.5415258826  
Li 7.2837125768 1.0423704059 21.6752704853  
Li 4.8614245100 2.3699553831 33.7456320327  
Li 7.2895578520 4.7390913439 31.9301429383  
Li 4.8598630121 9.2228814057 33.1678555744  

