&CONTROL
   calculation      = 'relax'
   restart_mode     = 'from_scratch'
   tstress          = .false.
   tprnfor          = .true.
   outdir           = './'
   etot_conv_thr    = 1e-05
   forc_conv_thr    = 0.000388
   disk_io          = 'none'
   pseudo_dir       = '/iridisfs/home/ba3g18/Repos/Pseudopotentials/pslibrary.1.0.0/pbe/PSEUDOPOTENTIALS'
/
&SYSTEM
   ibrav            = 0
   nbnd             = 171
   ecutwfc          = 80
   ecutrho          = 800
   occupations      = 'smearing'
   degauss          = 0.01
   smearing         = 'cold'
   input_dft        = 'PBE'
   ntyp             = 1
   nat              = 76
/
&ELECTRONS
   electron_maxstep = 200
   conv_thr         = 1e-06
   mixing_mode      = 'local-TF'
   mixing_beta      = 0.2
   diagonalization  = 'david'
/
&IONS
   ion_dynamics     = 'bfgs'
   upscale          = 1000000.0
   bfgs_ndim        = 1
/
&CELL
   press_conv_thr   = 0.1
   cell_dofree      = 'all'
/
&FCP
/
&RISM
/
ATOMIC_SPECIES
Li 6.94 Li.pbe-sl-kjpaw_psl.1.0.0.UPF

K_POINTS automatic
7 6 1  0 0 0

CELL_PARAMETERS angstrom
9.71608884000000 0.00000000000000 0.00000000000000
2.42902221000000 10.58786491000000 0.00000000000000
0.00000000000000 0.00000000000000 29.94699704000000

ATOMIC_POSITIONS angstrom
Li -0.0017197700 -0.5885402500 22.1498360500  
Li 2.4301975000 7.3566209700 8.1160674400  
Li 2.4295117700 3.7769087400 9.0107012100  
Li 2.4301996600 0.6900824000 10.0512127900  
Li 4.8609539000 7.8945269200 10.2893847400  
Li 4.8644147900 4.2453684400 11.0502519800  
Li 4.8664724000 1.1165427900 11.9703451600  
Li 2.4402372400 8.3757686300 12.6895623100  
Li 2.4374412700 5.0585411000 13.6175008700  
Li 2.4334505600 1.6088147200 14.4794866100  
Li 4.8557782800 8.8759734600 15.1985244700  
Li 4.8517137700 5.5876826900 15.9370967000  
Li 4.8487766500 2.2912882500 16.9140006900  
Li 2.4177543700 9.5447034900 17.4282109000  
Li 2.4209402000 6.0815596100 18.1003459800  
Li 2.4240125100 2.8187298800 19.1684991200  
Li 4.8562004300 9.9497952300 19.9970243100  
Li 4.8576208300 7.0080125700 21.0273197200  
Li 4.8574304600 3.3215894800 21.4648009700  
Li 2.4308661800 9.5541626900 9.9499699300  
Li 2.4340321700 6.0973644600 10.7784991300  
Li 2.4371049000 2.8345370500 11.8466526400  
Li 4.8693132000 9.9592569000 12.5187854100  
Li 4.8673121700 6.6248064600 13.0329974000  
Li 4.8643769300 3.3284082700 14.0098988800  
Li 4.8603103100 0.0401236800 14.7484710000  
Li 2.4245931800 7.3072807400 15.4675101600  
Li 2.4206046500 3.8575524200 16.3295000600  
Li 2.4178071300 0.5403270600 17.2574325200  
Li 4.8496184300 7.7995519800 17.9766484800  
Li 4.8516733700 4.6707287100 18.8967435600  
Li 4.8551333400 1.0215651100 19.6576125100  
Li 2.4278455600 8.2260147000 19.8957845500  
Li 2.4285313200 5.1391845100 20.9362972500  
Li 2.4278452600 1.5594704400 21.8309292700  
Li 4.8597643000 9.5046342000 7.7971619700  
Li 4.8586567700 5.5945023800 8.4821919900  
Li 4.8584679600 1.9080843900 8.9196786400  
Li 4.8563243000 -0.5885399000 22.1498376600  
Li 7.2882414800 7.3566216100 8.1160664800  
Li 7.2875583000 3.7769097900 9.0106983100  
Li 7.2882436100 0.6900801800 10.0512129600  
Li 9.7189975100 7.8945274100 10.2893847300  
Li 9.7224598500 4.2453679500 11.0502526900  
Li 9.7245163300 1.1165425300 11.9703457600  
Li 7.2982828400 8.3757686000 12.6895627600  
Li 7.2954846600 5.0585423400 13.6175012000  
Li 7.2914970400 1.6088138300 14.4794868000  
Li 9.7138218600 8.8759722900 15.1985273400  
Li 9.7097564300 5.5876828100 15.9370981600  
Li 9.7068216800 2.2912881600 16.9139997900  
Li 7.2757987000 9.5447036300 17.4282119700  
Li 7.2789851500 6.0815574200 18.1003457100  
Li 7.2820545900 2.8187291500 19.1684995200  
Li 9.7142448500 9.9497969900 19.9970250200  
Li 9.7156682100 7.0080126000 21.0273196500  
Li 9.7154759100 3.3215904500 21.4648010200  
Li 7.2889098200 9.5541635100 9.9499697900  
Li 7.2920769500 6.0973640200 10.7784981900  
Li 7.2951484900 2.8345379200 11.8466509700  
Li 9.7273573800 9.9592570800 12.5187874500  
Li 9.7253570900 6.6248056000 13.0329987800  
Li 9.7224201400 3.3284092400 14.0098991100  
Li 9.7183550200 0.0401213100 14.7484707100  
Li 7.2826364500 7.3072817600 15.4675111400  
Li 7.2786483600 3.8575502000 16.3294998800  
Li 7.2758517300 0.5403267700 17.2574334300  
Li 9.7076612500 7.7995515200 17.9766512500  
Li 9.7097184200 4.6707267200 18.8967437200  
Li 9.7131801000 1.0215670000 19.6576116200  
Li 7.2858900900 8.2260124300 19.8957865500  
Li 7.2865758400 5.1391848800 20.9362978900  
Li 7.2858909100 1.5594718400 21.8309293800  
Li 9.7178072500 9.5046338700 7.7971603600  
Li 9.7167014800 5.5945029500 8.4821915300  
Li 9.7165107200 1.9080820700 8.9196793900  

