&CONTROL
   calculation      = 'scf'
   verbosity        = 'high'
   restart_mode     = 'from_scratch'
   nstep            = 999
   tstress          = .false.
   tprnfor          = .true.
   outdir           = './Li/'
   prefix           = 'Lithium'
   etot_conv_thr    = 1e-05
   forc_conv_thr    = 0.000388
   disk_io          = 'minimal'
   pseudo_dir       = '/work/e89/e89/ba3g18/Repos/Pseudopotentials/Pslibrary'
/
&SYSTEM
   ibrav            = 12
   nbnd             = 153
   tot_charge       = 0.0
   ecutwfc          = 80.0
   ecutrho          = 800
   occupations      = 'smearing'
   degauss          = 0.01
   smearing         = 'cold'
   nspin            = 1
   input_dft        = 'pbe'
   lgcscf           = .true.
   gcscf_mu         = -5.404
   gcscf_conv_thr   = 0.001
   ntyp             = 1
   nat              = 68
   celldm(1)        = 18.360747
   celldm(2)        = 1.0606597768257267
   celldm(3)        = 5.518976
   celldm(4)        = -0.23570234816312513
/
&ELECTRONS
   electron_maxstep = 999
   scf_must_converge = .true.
   conv_thr         = 1e-16
   mixing_mode      = 'local-TF'
   mixing_beta      = 0.2
   diagonalization  = 'david'
   diago_thr_init   = 1e-12
   diago_david_ndim = 4
   diago_full_acc   = .true.
   startingwfc      = 'random'
/
&IONS
   ion_dynamics     = 'bfgs'
   upscale          = 1000000.0
   bfgs_ndim        = 1
/
&CELL
   press_conv_thr   = 0.1
   cell_dofree      = 'all'
/
&FCP
/
&RISM
/
ATOMIC_SPECIES
Li 6.94 Li.pbe-sl-kjpaw_psl.1.0.0.UPF

K_POINTS automatic
7 7 1  0 0 0

ATOMIC_POSITIONS angstrom
Li -0.0010940915 0.7695535431 19.3173793573  
Li 0.0015986937 5.7912953367 33.8994761982  
Li 2.4304192103 7.8231271800 31.6942893216  
Li 2.4313340391 1.9466065052 32.0172381557  
Li 0.0018981470 3.5690575874 30.8288121220  
Li 2.4294883017 5.4118421939 29.0603974354  
Li 2.4288901754 8.8155464829 25.7872452214  
Li 0.0017176512 9.4200721661 30.1955354655  
Li 0.0004424327 1.2042585751 28.2496902243  
Li 2.4285356708 2.9887208318 26.3909545307  
Li -0.0008208791 4.6527691089 24.8643075238  
Li 2.4276236878 6.4568535406 23.0231018173  
Li 0.0003750403 7.0486619523 27.5403057392  
Li 2.4281745806 0.4699550557 24.3761970887  
Li -0.0023264487 2.2612696257 22.4784993240  
Li 2.4268453207 3.7348832696 20.2352393533  
Li -0.0019469081 8.1056655510 21.7284441012  
Li 0.0021156827 0.6838731290 31.1439938852  
Li 0.0014387079 6.5032405216 30.5994609932  
Li 2.4298093765 8.3084000251 28.7587184520  
Li 2.4298688194 2.4761381791 29.2470485205  
Li 0.0000510303 4.1462117050 27.8366651911  
Li 2.4286622743 5.9132629494 26.0837831543  
Li 2.4270501956 9.3912133672 22.7937888874  
Li 0.0004666176 9.9726433875 27.2331546243  
Li -0.0005233356 1.7417962742 25.3740178693  
Li 2.4273042226 3.5399607521 23.4275837317  
Li -0.0014314510 5.1373583413 21.9272680292  
Li 2.4278147894 7.1689136009 19.7231321959  
Li -0.0004680757 7.5496945914 24.5625182968  
Li 2.4266935627 0.9984500408 21.6054225764  
Li 0.0022005375 2.1758428219 34.3050177368  
Li 2.4310012093 4.8546533433 31.8930061497  
Li 0.0020777771 9.2252410522 33.3875889243  
Li 4.8552674939 0.7695147565 19.3173383000  
Li 4.8601271665 5.7912363175 33.8996914183  
Li 7.2885840000 7.8231543060 31.6942603506  
Li 7.2893952889 1.9467602198 32.0175885883  
Li 4.8598366014 3.5690733949 30.8287460767  
Li 7.2874687310 5.4118579511 29.0600730035  
Li 7.2871220883 8.8155347767 25.7872758733  
Li 4.8597663046 9.4201252695 30.1953883620  
Li 4.8585896328 1.2042773059 28.2496666216  
Li 7.2866043162 2.9887656593 26.3909884578  
Li 4.8572275708 4.6527917888 24.8642477923  
Li 7.2855474139 6.4568160046 23.0229533688  
Li 4.8584743268 7.0486550282 27.5407227562  
Li 7.2862039829 0.4701127549 24.3753396468  
Li 4.8560710063 2.2611944118 22.4784990813  
Li 7.2849941407 3.7352358779 20.2349199959  
Li 4.8561194863 8.1052972072 21.7296126284  
Li 4.8602684018 0.6838835437 31.1439546427  
Li 4.8595131930 6.5033122826 30.5997170821  
Li 7.2879260242 8.3084132142 28.7587179571  
Li 7.2879190941 2.4761480301 29.2472627206  
Li 4.8580512248 4.1462136362 27.8366063408  
Li 7.2866222881 5.9132591280 26.0835757006  
Li 7.2853574325 9.3912231914 22.7938376701  
Li 4.8584990357 9.9726563530 27.2326896730  
Li 4.8575683252 1.7418451804 25.3740099657  
Li 7.2853644458 3.5399521997 23.4274042195  
Li 4.8565581030 5.1371669730 21.9272069749  
Li 7.2845707395 7.1690742892 19.7230892317  
Li 4.8576263594 7.5497325771 24.5633383180  
Li 7.2847847409 0.9979601779 21.6042296951  
Li 4.8597190983 2.1757995416 34.3049549873  
Li 7.2889610919 4.8547725058 31.8925695705  
Li 4.8602142601 9.2250616171 33.3875507857  

