&CONTROL
   calculation      = 'scf'
   verbosity        = 'high'
   restart_mode     = 'from_scratch'
   nstep            = 999
   tstress          = .false.
   tprnfor          = .true.
   outdir           = './Li/'
   prefix           = 'Lithium'
   etot_conv_thr    = 1e-05
   forc_conv_thr    = 0.000388
   disk_io          = 'minimal'
   pseudo_dir       = '/home/mmm1182/Repos/Pseudopotentials/pslibrary'
/
&SYSTEM
   ibrav            = 12
   nbnd             = 153
   tot_charge       = 0.0
   ecutwfc          = 80.0
   ecutrho          = 800
   occupations      = 'smearing'
   degauss          = 0.01
   smearing         = 'cold'
   nspin            = 1
   input_dft        = 'pbe'
   lgcscf           = .true.
   gcscf_mu         = -4.404
   gcscf_conv_thr   = 0.001
   ntyp             = 1
   nat              = 68
   celldm(1)        = 18.360747
   celldm(2)        = 1.0606597768257267
   celldm(3)        = 5.518976
   celldm(4)        = -0.23570234816312513
/
&ELECTRONS
   electron_maxstep = 999
   scf_must_converge = .true.
   conv_thr         = 1e-14
   mixing_mode      = 'local-TF'
   mixing_beta      = 0.2
   diagonalization  = 'david'
   diago_thr_init   = 1e-12
   diago_david_ndim = 4
   diago_full_acc   = .true.
   startingwfc      = 'random'
/
&IONS
   ion_dynamics     = 'bfgs'
   upscale          = 1000000.0
   bfgs_ndim        = 1
/
&CELL
   press_conv_thr   = 0.1
   cell_dofree      = 'all'
/
&FCP
/
&RISM
/
ATOMIC_SPECIES
Li 6.94 Li.pbe-sl-kjpaw_psl.1.0.0.UPF

K_POINTS automatic
7 7 1  0 0 0

ATOMIC_POSITIONS angstrom
Li -0.0011097521 0.7529582565 19.5417697121  
Li 0.0017751351 5.8043939902 33.7480289460  
Li 2.4306091469 7.7992957422 31.7608304514  
Li 2.4314301679 1.9547783851 32.0095204029  
Li 0.0018616278 3.5644985252 30.8697900475  
Li 2.4295221602 5.4081420752 29.0797139485  
Li 2.4288717802 8.8185284463 25.7737938934  
Li 0.0019811073 9.4151239728 30.2056060866  
Li 0.0005312933 1.2026467074 28.2613709717  
Li 2.4285357653 2.9959748749 26.3846671702  
Li -0.0008911905 4.6558541445 24.8462257448  
Li 2.4276759379 6.4584174790 22.9982624599  
Li 0.0003947597 7.0408955224 27.5529831132  
Li 2.4279386180 0.4734277609 24.3552538677  
Li -0.0024387762 2.2778272791 22.4511562723  
Li 2.4269542049 3.7141122837 20.2899445735  
Li -0.0018781441 8.1283090017 21.6960661560  
Li 0.0022272124 0.6667894728 31.1723432626  
Li 0.0014089292 6.5018732993 30.6249564536  
Li 2.4299052414 8.3061293532 28.7749653260  
Li 2.4301009284 2.4726501109 29.2675586743  
Li 0.0000866583 4.1433442876 27.8463878738  
Li 2.4286429741 5.9207864790 26.0664336389  
Li 2.4270897495 9.3955149386 22.7533392675  
Li 0.0004581918 9.9666595171 27.2364671924  
Li -0.0006266247 1.7447783567 25.3601626632  
Li 2.4270228305 3.5454704865 23.4170518219  
Li -0.0015485224 5.1603753851 21.8640904691  
Li 2.4276753744 7.1553052982 19.8769609371  
Li -0.0004895476 7.5530423852 24.5419801024  
Li 2.4266330816 0.9893549515 21.6148208644  
Li 0.0024571307 2.1934296696 34.0825033362  
Li 2.4309273199 4.8307588564 31.9284616534  
Li 0.0019795490 9.2457080439 33.3359744137  
Li 4.8550111335 0.7529567573 19.5417472416  
Li 4.8602126971 5.8042949535 33.7482274647  
Li 7.2886978257 7.7993145100 31.7608054168  
Li 7.2894693930 1.9549269531 32.0099249578  
Li 4.8598065516 3.5645195969 30.8697090990  
Li 7.2875107974 5.4081323697 29.0794596125  
Li 7.2870937003 8.8185138600 25.7738425059  
Li 4.8600333055 9.4151894310 30.2054806555  
Li 4.8586637639 1.2026801738 28.2613059882  
Li 7.2866055159 2.9960045541 26.3846972601  
Li 4.8571568389 4.6558726220 24.8461506569  
Li 7.2855783124 6.4583448835 22.9981088822  
Li 4.8584924897 7.0408851355 27.5532919332  
Li 7.2859482786 0.4735389294 24.3544932053  
Li 4.8559423138 2.2777701740 22.4511898593  
Li 7.2850640361 3.7144184983 20.2897088856  
Li 4.8561738893 8.1279376261 21.6971588088  
Li 4.8603577708 0.6667857185 31.1722629362  
Li 4.8594727465 6.5019226658 30.6251261618  
Li 7.2879784502 8.3061177639 28.7750101791  
Li 7.2881378706 2.4726680517 29.2677615495  
Li 4.8580774389 4.1433546988 27.8463005965  
Li 7.2866343091 5.9207585580 26.0662756526  
Li 7.2853604584 9.3955336550 22.7533472381  
Li 4.8584939837 9.9666665250 27.2360776180  
Li 4.8574742747 1.7448286390 25.3601582602  
Li 7.2850847968 3.5454433274 23.4169016933  
Li 4.8563599294 5.1601942675 21.8639840112  
Li 7.2845105424 7.1554420848 19.8768553719  
Li 4.8576006018 7.5530951987 24.5426415537  
Li 7.2846510225 0.9888701349 21.6134922050  
Li 4.8598344627 2.1933684634 34.0824325606  
Li 7.2888945466 4.8308860871 31.9280613179  
Li 4.8601126792 9.2455175221 33.3358760811  

