&CONTROL
   calculation      = 'scf'
   verbosity        = 'high'
   restart_mode     = 'from_scratch'
   nstep            = 999
   tstress          = .false.
   tprnfor          = .true.
   outdir           = './Li/'
   prefix           = 'Li'
   etot_conv_thr    = 1e-05
   forc_conv_thr    = 0.000388
   disk_io          = 'none'
   pseudo_dir       = '/home/ba3g18/Repos/Pseudopotentials/pslibrary.1.0.0/pbe/PSEUDOPOTENTIALS'
/
&SYSTEM
   ibrav            = 8
   nbnd             = 117
   tot_charge       = 0.0
   ecutwfc          = 80.0
   ecutrho          = 800
   occupations      = 'smearing'
   degauss          = 0.01
   smearing         = 'cold'
   nspin            = 1
   input_dft        = 'pbe'
   ntyp             = 1
   nat              = 52
   celldm(1)        = 12.983008999907588
   celldm(2)        = 1.8027760000196391
   celldm(3)        = 7.575360234766154
/
&ELECTRONS
   electron_maxstep = 999
   scf_must_converge = .true.
   conv_thr         = 1e-14
   mixing_mode      = 'local-TF'
   mixing_beta      = 0.2
   diagonalization  = 'david'
   startingwfc      = 'random'
/
&IONS
   ion_dynamics     = 'bfgs'
   upscale          = 1000000.0
   bfgs_ndim        = 6
/
&CELL
   press_conv_thr   = 0.1
   cell_dofree      = 'all'
/
&FCP
/
&RISM
/
ATOMIC_SPECIES
Li 6.94 Li.pbe-sl-kjpaw_psl.1.0.0.UPF

K_POINTS automatic
10 6 1  0 0 0

ATOMIC_POSITIONS angstrom
Li -0.0000000600 7.9351313540 31.0755271298  
Li -0.0000000600 10.4895587977 29.2470951354  
Li -0.0000000600 2.9470858645 29.9329818194  
Li -0.0000000600 5.7270062589 28.1736182228  
Li -0.0000000600 8.5676892866 26.2990325230  
Li -0.0000000600 11.4070902398 24.4807917728  
Li -0.0000000600 0.9505377828 27.2285433158  
Li -0.0000000600 3.8318221667 25.1745035768  
Li -0.0000000600 6.6656586213 23.3294602413  
Li -0.0000000600 9.4090451680 21.4824790872  
Li -0.0000000600 1.8685146114 22.4197095837  
Li -0.0000000600 4.2195101399 20.4341744164  
Li -0.0000000600 0.8310304396 32.0450916404  
Li 1.7175779097 8.1018354339 28.7156436865  
Li 1.7175778113 10.9356746454 26.8706016179  
Li 1.7175782659 3.3604046421 27.5643176793  
Li 1.7175780269 6.1998110129 25.7460777224  
Li 1.7175781280 9.0404814865 23.8714927292  
Li 1.7175779760 11.8203871091 22.1121307184  
Li 1.7175778443 1.4313256935 24.8165534931  
Li 1.7175780278 4.2779303515 22.7980035988  
Li 1.7175778751 6.8323449415 20.9695712370  
Li 1.7175781082 10.5479585522 31.6109199717  
Li 1.7175780363 1.5507887381 20.0000000000  
Li 1.7175779388 5.3584262101 30.5626284713  
Li 1.7175782159 0.5133377379 29.6253854828  
Li 3.4351561700 7.9351313557 31.0755269832  
Li 3.4351561700 10.4895586768 29.2470948092  
Li 3.4351561700 2.9470859260 29.9329822361  
Li 3.4351561700 5.7270064033 28.1736184108  
Li 3.4351561700 8.5676894883 26.2990326311  
Li 3.4351561700 11.4070902945 24.4807919753  
Li 3.4351561700 0.9505373730 27.2285433459  
Li 3.4351561700 3.8318221574 25.1745034966  
Li 3.4351561600 6.6656587588 23.3294602188  
Li 3.4351561700 9.4090453511 21.4824786366  
Li 3.4351561700 1.8685144578 22.4197096558  
Li 3.4351561700 4.2195101657 20.4341743114  
Li 3.4351561700 0.8310301975 32.0450917993  
Li 5.1527344303 8.1018354339 28.7156436965  
Li 5.1527345287 10.9356746454 26.8706016179  
Li 5.1527340741 3.3604046421 27.5643176893  
Li 5.1527343031 6.1998110129 25.7460777224  
Li 5.1527342020 9.0404814865 23.8714927292  
Li 5.1527343640 11.8203870991 22.1121307184  
Li 5.1527344957 1.4313256835 24.8165534931  
Li 5.1527343122 4.2779303515 22.7980035988  
Li 5.1527344549 6.8323449415 20.9695712470  
Li 5.1527342218 10.5479585422 31.6109199717  
Li 5.1527343037 1.5507887481 20.0000000000  
Li 5.1527343912 5.3584262101 30.5626284713  
Li 5.1527341241 0.5133377379 29.6253854828  

