&CONTROL
   calculation      = 'scf'
   verbosity        = 'high'
   restart_mode     = 'from_scratch'
   nstep            = 999
   tstress          = .false.
   tprnfor          = .true.
   outdir           = './Li/'
   prefix           = 'Lithium'
   etot_conv_thr    = 1e-05
   forc_conv_thr    = 0.000388
   disk_io          = 'minimal'
   pseudo_dir       = '/work/e89/e89/ba3g18/Repos/Pseudopotentials/Pslibrary'
/
&SYSTEM
   ibrav            = 8
   nbnd             = 117
   tot_charge       = 0.0
   ecutwfc          = 80.0
   ecutrho          = 800
   occupations      = 'smearing'
   degauss          = 0.01
   smearing         = 'cold'
   nspin            = 1
   input_dft        = 'pbe'
   lgcscf           = .true.
   gcscf_mu         = -1.654
   gcscf_conv_thr   = 0.001
   ntyp             = 1
   nat              = 52
   celldm(1)        = 12.983009
   celldm(2)        = 1.8027759999999997
   celldm(3)        = 7.57536
/
&ELECTRONS
   electron_maxstep = 999
   scf_must_converge = .true.
   conv_thr         = 1e-14
   mixing_mode      = 'local-TF'
   mixing_beta      = 0.2
   diagonalization  = 'david'
   diago_thr_init   = 1e-12
   diago_david_ndim = 4
   diago_full_acc   = .true.
   startingwfc      = 'random'
/
&IONS
   ion_dynamics     = 'bfgs'
   upscale          = 1000000.0
   bfgs_ndim        = 1
/
&CELL
   press_conv_thr   = 0.1
   cell_dofree      = 'all'
/
&FCP
/
&RISM
/
ATOMIC_SPECIES
Li 6.94 Li.pbe-sl-kjpaw_psl.1.0.0.UPF

K_POINTS automatic
10 6 1  0 0 0

ATOMIC_POSITIONS angstrom
Li 0.0000000000 7.9332981328 31.1484694487  
Li 0.0000000000 10.5341280472 29.1906337439  
Li 0.0000000000 2.9763269799 30.1872597323  
Li 0.0000000000 5.7444926496 28.2190891825  
Li 0.0000000000 8.5597145681 26.2721651408  
Li 0.0000000000 11.3975625233 24.2952677692  
Li 0.0000000000 0.9635305626 27.1963582970  
Li 0.0000000000 3.8011679938 25.3061491581  
Li 0.0000000000 6.6226084777 23.3282828087  
Li 0.0000000000 9.3238417197 21.3746855322  
Li 0.0000000000 1.8493372529 22.5151637637  
Li 0.0000000000 4.3671177871 20.3931313555  
Li 0.0000000000 0.5060782594 31.9697067644  
Li 1.7175813661 8.1394277003 28.7110834177  
Li 1.7175810490 10.9477529577 26.7360383983  
Li 1.7175740871 3.3542186018 27.7454675428  
Li 1.7175749919 6.1893270037 25.7662484076  
Li 1.7175757356 9.0120251109 23.8216225099  
Li 1.7175723368 11.8016070008 21.8564379776  
Li 1.7175810364 1.3984418049 24.8536658167  
Li 1.7175817040 4.2342017868 22.8540526140  
Li 1.7175817129 6.8532884391 20.8929989260  
Li 1.7175760667 10.4196798335 31.6555928142  
Li 1.7175743824 1.8963632851 20.0886754217  
Li 1.7175774115 5.4580222510 30.6683107715  
Li 1.7175737071 0.5368246439 29.5397761399  
Li 3.4351562293 7.9333042718 31.1484768216  
Li 3.4351562293 10.5341315230 29.1906418555  
Li 3.4351562293 2.9763230564 30.1872554803  
Li 3.4351562293 5.7444872979 28.2190800069  
Li 3.4351562293 8.5597086947 26.2721603917  
Li 3.4351562293 11.3975576031 24.2952662877  
Li 3.4351562293 0.9635350504 27.1963632271  
Li 3.4351562293 3.8011738829 25.3061519451  
Li 3.4351562293 6.6226142942 23.3282854517  
Li 3.4351562293 9.3238462275 21.3746882151  
Li 3.4351562293 1.8493355055 22.5151603370  
Li 3.4351562293 4.3671162267 20.3931230687  
Li 3.4351562293 0.5060756522 31.9697044650  
Li 5.1527310926 8.1394277003 28.7110834177  
Li 5.1527314096 10.9477529577 26.7360383983  
Li 5.1527383715 3.3542186018 27.7454675428  
Li 5.1527374668 6.1893270037 25.7662484076  
Li 5.1527367231 9.0120251109 23.8216225099  
Li 5.1527401218 11.8016070008 21.8564379776  
Li 5.1527314223 1.3984418049 24.8536658167  
Li 5.1527307547 4.2342017868 22.8540526140  
Li 5.1527307458 6.8532884391 20.8929989260  
Li 5.1527363920 10.4196798335 31.6555928142  
Li 5.1527380763 1.8963632851 20.0886754217  
Li 5.1527350472 5.4580222510 30.6683107715  
Li 5.1527387515 0.5368246439 29.5397761399  

