&CONTROL
   calculation      = 'relax'
   verbosity        = 'high'
   restart_mode     = 'from_scratch'
   nstep            = 999
   tstress          = .false.
   tprnfor          = .true.
   outdir           = './Li/'
   prefix           = 'Lithium'
   etot_conv_thr    = 1e-05
   forc_conv_thr    = 0.000388
   disk_io          = 'minimal'
   pseudo_dir       = '/work/e89/e89/ba3g18/Repos/Pseudopotentials/Pslibrary'
/
&SYSTEM
   ibrav            = 8
   nbnd             = 117
   tot_charge       = 0.0
   ecutwfc          = 80.0
   ecutrho          = 800
   occupations      = 'smearing'
   degauss          = 0.01
   smearing         = 'cold'
   nspin            = 1
   input_dft        = 'pbe'
   lgcscf           = .true.
   gcscf_mu         = -3.404
   gcscf_conv_thr   = 0.001
   ntyp             = 1
   nat              = 52
   celldm(1)        = 12.983009
   celldm(2)        = 1.8027759999999997
   celldm(3)        = 7.57536
/
&ELECTRONS
   electron_maxstep = 999
   scf_must_converge = .true.
   conv_thr         = 1e-06
   mixing_mode      = 'local-TF'
   mixing_beta      = 0.2
   diagonalization  = 'david'
   diago_thr_init   = 1e-12
   diago_david_ndim = 4
   diago_full_acc   = .true.
   startingwfc      = 'random'
/
&IONS
   ion_dynamics     = 'bfgs'
   upscale          = 1000000.0
   bfgs_ndim        = 1
/
&CELL
   press_conv_thr   = 0.1
   cell_dofree      = 'all'
/
&FCP
/
&RISM
/
ATOMIC_SPECIES
Li 6.94 Li.pbe-sl-kjpaw_psl.1.0.0.UPF

K_POINTS automatic
10 6 1  0 0 0

ATOMIC_POSITIONS angstrom
Li -0.0000000000 7.8380831617 31.1156544257  
Li -0.0000000000 10.3627874016 29.4265080412  
Li -0.0000000000 2.7714191471 29.6245445295  
Li -0.0000000000 5.6631456397 28.3584181470  
Li -0.0000000000 8.5631898981 26.2078061732  
Li -0.0000000000 11.3868330732 24.6778122791  
Li -0.0000000000 0.8752502271 27.2366612154  
Li -0.0000000000 3.9184612595 24.9993312415  
Li -0.0000000000 6.7262334361 23.3459008631  
Li -0.0000000000 9.7363348536 21.2785837649  
Li -0.0000000000 2.0172996559 22.3160905796  
Li -0.0000000000 4.1186264506 20.1739529931  
Li -0.0000000000 1.2049271672 32.1463838031  
Li 1.7175783654 8.0412417386 28.6991937536  
Li 1.7175781868 10.8490261207 27.0457721827  
Li 1.7175779060 3.3806434801 27.3672904785  
Li 1.7175781147 6.2043028010 25.8372976956  
Li 1.7175781896 9.1043404285 23.6866834494  
Li 1.7175781680 11.9960662569 22.4205520914  
Li 1.7175781147 1.5066041413 24.8084388390  
Li 1.7175780419 4.4047031741 22.6185998420  
Li 1.7175781147 6.9293992724 20.9294524891  
Li 1.7175782183 10.6488706939 31.8711481966  
Li 1.7175781147 1.1769239808 19.8987198532  
Li 1.7175781147 5.0311339113 30.7665179288  
Li 1.7175780469 0.3645425809 29.7290097744  
Li 3.4351562293 7.8380830718 31.1156543355  
Li 3.4351562293 10.3627877662 29.4265082117  
Li 3.4351562293 2.7714189080 29.6245446482  
Li 3.4351562293 5.6631455256 28.3584181572  
Li 3.4351562293 8.5631901128 26.2078059310  
Li 3.4351562293 11.3868330166 24.6778121375  
Li 3.4351562293 0.8752500776 27.2366613624  
Li 3.4351562293 3.9184611580 24.9993316927  
Li 3.4351562293 6.7262335777 23.3459008295  
Li 3.4351562293 9.7363349046 21.2785839355  
Li 3.4351562293 2.0172992197 22.3160906140  
Li 3.4351562293 4.1186265487 20.1739525557  
Li 3.4351562293 1.2049266070 32.1463832956  
Li 5.1527340933 8.0412417386 28.6991937536  
Li 5.1527342718 10.8490261207 27.0457721827  
Li 5.1527345527 3.3806434801 27.3672904785  
Li 5.1527343440 6.2043028010 25.8372976956  
Li 5.1527342691 9.1043404285 23.6866834494  
Li 5.1527342907 11.9960662569 22.4205520914  
Li 5.1527343440 1.5066041413 24.8084388390  
Li 5.1527344167 4.4047031741 22.6185998420  
Li 5.1527343440 6.9293992724 20.9294524891  
Li 5.1527342403 10.6488706939 31.8711481966  
Li 5.1527343440 1.1769239808 19.8987198532  
Li 5.1527343440 5.0311339113 30.7665179288  
Li 5.1527344117 0.3645425809 29.7290097744  

