&CONTROL
   calculation      = 'scf'
   verbosity        = 'high'
   restart_mode     = 'from_scratch'
   nstep            = 999
   tstress          = .false.
   tprnfor          = .true.
   outdir           = './Li/'
   prefix           = 'Lithium'
   etot_conv_thr    = 1e-05
   forc_conv_thr    = 0.000388
   disk_io          = 'minimal'
   pseudo_dir       = '/work/e89/e89/ba3g18/Repos/Pseudopotentials/Pslibrary'
/
&SYSTEM
   ibrav            = 8
   nbnd             = 99
   tot_charge       = 0.0
   ecutwfc          = 80.0
   ecutrho          = 800
   occupations      = 'smearing'
   degauss          = 0.01
   smearing         = 'cold'
   nspin            = 1
   input_dft        = 'pbe'
   lgcscf           = .true.
   gcscf_mu         = -5.404
   gcscf_conv_thr   = 0.001
   ntyp             = 1
   nat              = 44
   celldm(1)        = 18.360747
   celldm(2)        = 0.586302
   celldm(3)        = 5.699811
/
&ELECTRONS
   electron_maxstep = 999
   scf_must_converge = .true.
   conv_thr         = 1e-16
   mixing_mode      = 'local-TF'
   mixing_beta      = 0.2
   diagonalization  = 'david'
   diago_thr_init   = 1e-12
   diago_david_ndim = 4
   diago_full_acc   = .true.
   startingwfc      = 'random'
/
&IONS
   ion_dynamics     = 'bfgs'
   upscale          = 1000000.0
   bfgs_ndim        = 1
/
&CELL
   press_conv_thr   = 0.1
   cell_dofree      = 'all'
/
&FCP
/
&RISM
/
ATOMIC_SPECIES
Li 6.94 Li.pbe-sl-kjpaw_psl.1.0.0.UPF

K_POINTS automatic
7 12 1  0 0 0

ATOMIC_POSITIONS angstrom
Li 4.8580444204 5.1652538487 36.1124304767  
Li 2.4290738491 4.6728516616 19.2672686592  
Li 2.4290642292 0.9347561343 21.9270576218  
Li 4.8580444204 2.1565062491 20.3458397831  
Li -0.0000000000 4.9132888238 21.9589219094  
Li 4.8580444204 1.8876357084 23.4958589371  
Li 2.4290804657 3.1236494439 25.7864343396  
Li 2.4290025315 5.7040519657 27.5634902096  
Li 2.4290374934 3.6603109383 22.7601099503  
Li 2.4289963726 0.4267162579 24.6526402471  
Li -0.0000000000 4.5441276964 24.8949269463  
Li 4.8580444204 1.4433221125 26.5566357401  
Li 4.8580444204 4.1355504790 27.8160512219  
Li 4.8580444204 1.0192916792 29.5935815853  
Li 2.4289972357 5.2953379222 30.4851499743  
Li 2.4290261084 2.2552872775 31.8840375614  
Li 2.4290802723 2.6995920287 28.8233343843  
Li -0.0000000000 3.7160657013 30.7276711359  
Li 4.8580444204 0.4830080112 32.6200912277  
Li 4.8580444204 3.2088486569 33.4520084058  
Li 2.4289257750 4.9262702425 33.4210814290  
Li 2.4305739587 1.9864862141 35.0338337619  
Li 9.7160888407 5.1678723809 36.1122489766  
Li 7.2870149917 4.6728516616 19.2672686592  
Li 7.2870246116 0.9347561343 21.9270576218  
Li 9.7160888407 2.1565168059 20.3458792853  
Li 4.8580444204 4.9132083143 21.9587045110  
Li 9.7160888407 1.8877093750 23.4957710213  
Li 7.2870083751 3.1236494439 25.7864343396  
Li 7.2870863093 5.7040519657 27.5634902096  
Li 7.2870513474 3.6603109383 22.7601099503  
Li 7.2870924682 0.4267162579 24.6526402471  
Li 4.8580444204 4.5442186733 24.8945846997  
Li 9.7160888407 1.4434107083 26.5564269715  
Li 9.7160888407 4.1353665444 27.8167449632  
Li 9.7160888407 1.0193055453 29.5932849851  
Li 7.2870916051 5.2953379222 30.4851499743  
Li 7.2870627324 2.2552872775 31.8840375614  
Li 7.2870085685 2.6995920287 28.8233343843  
Li 4.8580444204 3.7164413310 30.7265244247  
Li 9.7160888407 0.4824525140 32.6194673278  
Li 9.7160888407 3.2074744376 33.4539065015  
Li 7.2871630657 4.9262702425 33.4210814290  
Li 7.2855148821 1.9864862141 35.0338337619  

