&CONTROL
   calculation      = 'relax'
   verbosity        = 'high'
   restart_mode     = 'from_scratch'
   nstep            = 999
   tstress          = .false.
   tprnfor          = .true.
   outdir           = './Li/'
   prefix           = 'Lithium'
   etot_conv_thr    = 1e-05
   forc_conv_thr    = 0.000388
   disk_io          = 'minimal'
   pseudo_dir       = '/home/mmm1182/Repos/Pseudopotentials/pslibrary'
/
&SYSTEM
   ibrav            = 14
   nbnd             = 36
   tot_charge       = 0.0
   ecutwfc          = 80.0
   ecutrho          = 800
   occupations      = 'smearing'
   degauss          = 0.01
   smearing         = 'cold'
   nspin            = 1
   input_dft        = 'pbe'
   lgcscf           = .true.
   gcscf_mu         = -3.904
   gcscf_conv_thr   = 0.001
   ntyp             = 1
   nat              = 16
   celldm(1)        = 11.243615
   celldm(2)        = 0.9999998496849888
   celldm(3)        = 7.921182
   celldm(4)        = 0.0
   celldm(5)        = 0.0
   celldm(6)        = -0.33333305010496117
/
&ELECTRONS
   electron_maxstep = 999
   scf_must_converge = .true.
   conv_thr         = 1e-06
   mixing_mode      = 'local-TF'
   mixing_beta      = 0.2
   diagonalization  = 'david'
   diago_thr_init   = 1e-12
   diago_david_ndim = 4
   diago_full_acc   = .true.
   startingwfc      = 'random'
/
&IONS
   ion_dynamics     = 'bfgs'
   upscale          = 1000000.0
   bfgs_ndim        = 1
/
&CELL
   press_conv_thr   = 0.1
   cell_dofree      = 'all'
/
&FCP
/
&RISM
/
ATOMIC_SPECIES
Li 6.94 Li.pbe-sl-kjpaw_psl.1.0.0.UPF

K_POINTS automatic
11 11 1  0 0 0

ATOMIC_POSITIONS angstrom
Li 0.9916067309 1.4024122154 20.0202747342  
Li 1.9832882700 2.8047934300 22.3394874535  
Li 0.9916618661 1.4023623575 24.7905260223  
Li 1.9832882800 2.8047934500 27.1094672370  
Li 0.0000322010 4.2072046238 20.0204551211  
Li 0.9916443500 5.6095863900 22.3395494945  
Li -0.0000272786 4.2071617540 24.7905945299  
Li 0.9916443300 5.6095863500 27.1095843522  
Li 3.9665444190 1.4023818462 20.0204551811  
Li 4.9582206700 2.8047934200 22.3395129372  
Li 3.9666038886 1.4024246860 24.7905945499  
Li 4.9582206800 2.8047934400 27.1095719296  
Li 2.9749698891 4.2071742546 20.0202747042  
Li 3.9665767500 5.6095863800 22.3395083966  
Li 2.9749147439 4.2072240825 24.7905259923  
Li 3.9665767300 5.6095863300 27.1095614210  

