&CONTROL
   calculation      = 'scf'
   verbosity        = 'high'
   restart_mode     = 'from_scratch'
   nstep            = 999
   tstress          = .false.
   tprnfor          = .true.
   outdir           = './Li/'
   prefix           = 'Lithium'
   etot_conv_thr    = 1e-05
   forc_conv_thr    = 0.000388
   disk_io          = 'minimal'
   pseudo_dir       = '/work/e89/e89/ba3g18/Repos/Pseudopotentials/Pslibrary'
/
&SYSTEM
   ibrav            = 12
   nbnd             = 153
   tot_charge       = 0.0
   ecutwfc          = 80.0
   ecutrho          = 800
   occupations      = 'smearing'
   degauss          = 0.01
   smearing         = 'cold'
   nspin            = 1
   input_dft        = 'pbe'
   lgcscf           = .true.
   gcscf_mu         = -1.404
   gcscf_conv_thr   = 0.001
   ntyp             = 1
   nat              = 68
   celldm(1)        = 18.360747
   celldm(2)        = 1.0606597768257267
   celldm(3)        = 5.518976
   celldm(4)        = -0.23570234816312513
/
&ELECTRONS
   electron_maxstep = 999
   scf_must_converge = .true.
   conv_thr         = 1e-14
   mixing_mode      = 'local-TF'
   mixing_beta      = 0.2
   diagonalization  = 'david'
   diago_thr_init   = 1e-12
   diago_david_ndim = 4
   diago_full_acc   = .true.
   startingwfc      = 'random'
/
&IONS
   ion_dynamics     = 'bfgs'
   upscale          = 1000000.0
   bfgs_ndim        = 1
/
&CELL
   press_conv_thr   = 0.1
   cell_dofree      = 'all'
/
&FCP
/
&RISM
/
ATOMIC_SPECIES
Li 6.94 Li.pbe-sl-kjpaw_psl.1.0.0.UPF

K_POINTS automatic
7 7 1  0 0 0

ATOMIC_POSITIONS angstrom
Li -0.0026514113 0.0751593144 20.0571484910  
Li 0.0016736406 5.9065561323 33.2258623091  
Li 2.4308395750 7.6270462777 31.7482841779  
Li 2.4317791208 1.8099927314 32.3149689304  
Li 0.0018705544 3.5729961221 30.6946509530  
Li 2.4304369364 5.3111556396 29.1656769356  
Li 2.4286255948 8.8018467560 25.8579664876  
Li 0.0022100638 9.4548913293 29.9491070665  
Li 0.0011484070 1.1778632290 28.2820283451  
Li 2.4288136552 2.9450191947 26.5911833217  
Li -0.0015676906 4.7224027445 24.8219971032  
Li 2.4273188929 6.4289016963 23.2334705346  
Li 0.0003747793 7.0842153555 27.4236571492  
Li 2.4272479377 0.5698198975 24.1497792567  
Li -0.0025916429 2.3725410888 22.3904946504  
Li 2.4271384280 4.0062171894 20.7500750097  
Li -0.0020902205 8.3034459614 21.5158697610  
Li 0.0025187691 0.5731110933 31.2323165197  
Li 0.0017132007 6.5318148651 30.3894085558  
Li 2.4305877462 8.2383101926 28.8009017928  
Li 2.4307944960 2.3757586175 29.4730850546  
Li 0.0003882730 4.1588472588 27.7649266371  
Li 2.4286473567 5.8764493757 26.1992135462  
Li 2.4271477617 9.3877170939 22.9282461743  
Li 0.0002077999 10.0156329760 27.0316843781  
Li -0.0011913668 1.7677539362 25.3408018254  
Li 2.4268131933 3.5058046449 23.6737934830  
Li -0.0018184460 5.3337433590 21.8745625957  
Li 2.4273504377 7.0542315503 20.3970495595  
Li -0.0014117202 7.6495438161 24.4571763636  
Li 2.4262664088 1.1356655753 21.3079542117  
Li 0.0027726376 2.8705238239 33.5657839264  
Li 2.4311203733 4.6573242297 32.1069427298  
Li 0.0018711665 8.9545646310 32.8728013505  
Li 4.8552249488 0.0750988168 20.0571553930  
Li 4.8597457135 5.9065100152 33.2259086797  
Li 7.2889576443 7.6270462448 31.7482857364  
Li 7.2898339062 1.8099991667 32.3150900589  
Li 4.8598846440 3.5729945188 30.6946402122  
Li 7.2884443783 5.3111580163 29.1656356429  
Li 7.2867209061 8.8018614090 25.8579766557  
Li 4.8602472958 9.4549080288 29.9490062781  
Li 4.8592373766 1.1778642569 28.2820417690  
Li 7.2868758753 2.9450348899 26.5912468342  
Li 4.8564480319 4.7224082686 24.8219786843  
Li 7.2853288388 6.4288854264 23.2334086917  
Li 4.8584352689 7.0842240782 27.4237043937  
Li 7.2852831641 0.5698540934 24.1495920730  
Li 4.8555494966 2.3725397684 22.3904997316  
Li 7.2852065729 4.0063041339 20.7501520234  
Li 4.8559520322 8.3034691711 21.5159167790  
Li 4.8606123949 0.5731121294 31.2323252999  
Li 4.8597705926 6.5318468471 30.3894725831  
Li 7.2886632840 8.2383209451 28.8009054381  
Li 7.2888509802 2.3757765121 29.4731691743  
Li 4.8584002222 4.1588353690 27.7649040024  
Li 7.2866758897 5.8764508742 26.1991700250  
Li 7.2852311551 9.3877273084 22.9282459332  
Li 4.8582367895 10.0156418979 27.0315414538  
Li 4.8568946184 1.7677582866 25.3408103010  
Li 7.2848629380 3.5058299825 23.6738519132  
Li 4.8561532316 5.3337337799 21.8745302357  
Li 7.2853608935 7.0543096289 20.3970113618  
Li 4.8566636514 7.6495744463 24.4572280469  
Li 7.2842967251 1.1356566634 21.3076658328  
Li 4.8607406194 2.8704905902 33.5657800246  
Li 7.2891516803 4.6573102432 32.1069041535  
Li 4.8599137547 8.9545060411 32.8726837644  

