&CONTROL
   calculation      = 'scf'
   verbosity        = 'high'
   restart_mode     = 'from_scratch'
   nstep            = 999
   tstress          = .false.
   tprnfor          = .true.
   outdir           = './Li/'
   prefix           = 'Li'
   etot_conv_thr    = 1e-05
   forc_conv_thr    = 0.000388
   disk_io          = 'none'
   pseudo_dir       = '/home/ba3g18/Repos/Pseudopotentials/pslibrary.1.0.0/pbe/PSEUDOPOTENTIALS'
/
&SYSTEM
   ibrav            = 12
   nbnd             = 99
   tot_charge       = 0.0
   ecutwfc          = 80.0
   ecutrho          = 800
   occupations      = 'smearing'
   degauss          = 0.01
   smearing         = 'cold'
   nspin            = 1
   input_dft        = 'pbe'
   ntyp             = 1
   nat              = 44
   celldm(1)        = 18.360746999913715
   celldm(2)        = 0.8660252146083165
   celldm(3)        = 5.240448679306212
   celldm(4)        = -0.2886751976565052
/
&ELECTRONS
   electron_maxstep = 999
   scf_must_converge = .true.
   conv_thr         = 1e-14
   mixing_mode      = 'local-TF'
   mixing_beta      = 0.2
   diagonalization  = 'david'
   startingwfc      = 'random'
/
&IONS
   ion_dynamics     = 'bfgs'
   upscale          = 1000000.0
   bfgs_ndim        = 6
/
&CELL
   press_conv_thr   = 0.1
   cell_dofree      = 'all'
/
&FCP
/
&RISM
/
ATOMIC_SPECIES
Li 6.94 Li.pbe-sl-kjpaw_psl.1.0.0.UPF

K_POINTS automatic
7 8 1  0 0 0

ATOMIC_POSITIONS angstrom
Li -2.4318467158 7.5764597828 20.0000005790  
Li 2.4321287856 2.4311579878 30.5000979594  
Li 0.0031784857 4.4030290527 29.3594405019  
Li 2.4311304730 6.5592314166 28.2128346767  
Li 2.4304790741 0.7717866811 27.2693224917  
Li 0.0007845311 2.9261192071 26.2820307055  
Li 2.4287288044 5.0986662158 25.2531181325  
Li -0.0007824631 7.3126049368 24.1742218724  
Li -0.0021202394 1.4831898801 23.0291280679  
Li 2.4262587244 3.7573462983 22.0135102144  
Li -0.0032707682 5.7675368683 21.1122155020  
Li 0.0027632234 1.3693093198 28.9031700283  
Li 2.4311442813 3.6434587960 27.8875517291  
Li 0.0007808683 5.8701717997 26.7424729091  
Li 2.4293166590 8.0841386385 25.6635518443  
Li 2.4282399598 2.2005234026 24.6346489251  
Li -0.0014562515 4.3548486518 23.6473521885  
Li 2.4269112582 6.6235871270 22.7038371681  
Li 2.4258448724 0.7236073639 21.5572514467  
Li -0.0031080607 2.6954900064 20.4165833032  
Li 2.4318455919 5.6063378730 30.9166649333  
Li 0.0032701582 7.4152631786 29.8044725095  
Li 2.4261977507 7.5764588833 20.0000000000  
Li 7.2901737438 2.4311578279 30.5000982665  
Li 4.8612226915 4.4030289460 29.3594419043  
Li 7.2891760043 6.5592309525 28.2128336119  
Li 7.2885235135 0.7717866871 27.2693222994  
Li 4.8588291481 2.9261191452 26.2820295207  
Li 7.2867724907 5.0986658006 25.2531183688  
Li 4.8572615802 7.3126041791 24.1742219275  
Li 4.8559237969 1.4831900611 23.0291273670  
Li 7.2843025555 3.7573467843 22.0135108406  
Li 4.8547744094 5.7675374037 21.1122155390  
Li 4.8608080894 1.3693104843 28.9031701021  
Li 7.2891874232 3.6434582844 27.8875517035  
Li 4.8588255094 5.8701712931 26.7424732961  
Li 7.2873611660 8.0841393331 25.6635518361  
Li 7.2862853913 2.2005231558 24.6346486510  
Li 4.8565877983 4.3548484746 23.6473528739  
Li 7.2849564615 6.6235876917 22.7038368636  
Li 7.2838885639 0.7236078713 21.5572516292  
Li 4.8549371885 2.6954895930 20.4165823849  
Li 7.2898906911 5.6063379581 30.9166642677  
Li 4.8613147420 7.4152631950 29.8044718177  

