&CONTROL
   calculation      = 'relax'
   verbosity        = 'high'
   restart_mode     = 'from_scratch'
   nstep            = 999
   tstress          = .false.
   tprnfor          = .true.
   outdir           = './Li/'
   prefix           = 'Lithium'
   etot_conv_thr    = 1e-05
   forc_conv_thr    = 0.000388
   disk_io          = 'minimal'
   pseudo_dir       = '/home/mmm1182/Repos/Pseudopotentials/pslibrary'
/
&SYSTEM
   ibrav            = 8
   nbnd             = 117
   tot_charge       = 0.0
   ecutwfc          = 80.0
   ecutrho          = 800
   occupations      = 'smearing'
   degauss          = 0.01
   smearing         = 'cold'
   nspin            = 1
   input_dft        = 'pbe'
   lgcscf           = .true.
   gcscf_mu         = -3.904
   gcscf_conv_thr   = 0.001
   ntyp             = 1
   nat              = 52
   celldm(1)        = 12.983009
   celldm(2)        = 1.8027759999999997
   celldm(3)        = 7.57536
/
&ELECTRONS
   electron_maxstep = 999
   scf_must_converge = .true.
   conv_thr         = 1e-06
   mixing_mode      = 'local-TF'
   mixing_beta      = 0.2
   diagonalization  = 'david'
   diago_thr_init   = 1e-12
   diago_david_ndim = 4
   diago_full_acc   = .true.
   startingwfc      = 'random'
/
&IONS
   ion_dynamics     = 'bfgs'
   upscale          = 1000000.0
   bfgs_ndim        = 1
/
&CELL
   press_conv_thr   = 0.1
   cell_dofree      = 'all'
/
&FCP
/
&RISM
/
ATOMIC_SPECIES
Li 6.94 Li.pbe-sl-kjpaw_psl.1.0.0.UPF

K_POINTS automatic
10 6 1  0 0 0

ATOMIC_POSITIONS angstrom
Li -0.0000000000 7.8380832214 31.1156540566  
Li -0.0000000000 10.3627870178 29.4265080430  
Li -0.0000000000 2.7714194649 29.6245441126  
Li -0.0000000000 5.6631456583 28.3584183518  
Li -0.0000000000 8.5631897389 26.2078058169  
Li -0.0000000000 11.3868331969 24.6778119655  
Li -0.0000000000 0.8752503260 27.2366612148  
Li -0.0000000000 3.9184614128 24.9993309091  
Li -0.0000000000 6.7262330750 23.3459009018  
Li -0.0000000000 9.7363347520 21.2785833482  
Li -0.0000000000 2.0172996179 22.3160905305  
Li -0.0000000000 4.1186265922 20.1739532131  
Li -0.0000000000 1.2049270785 32.1463836757  
Li 1.7175781147 8.0412417960 28.6991934071  
Li 1.7175781147 10.8490258247 27.0457723313  
Li 1.7175781147 3.3806437351 27.3672905878  
Li 1.7175781147 6.2043029948 25.8372974234  
Li 1.7175781147 9.1043402052 23.6866835145  
Li 1.7175781147 11.9960663986 22.4205522574  
Li 1.7175781147 1.5066038727 24.8084385904  
Li 1.7175781147 4.4047029679 22.6186000065  
Li 1.7175781147 6.9293992069 20.9294526189  
Li 1.7175781147 10.6488709508 31.8711479661  
Li 1.7175781147 1.1769236849 19.8987195646  
Li 1.7175781147 5.0311339357 30.7665178311  
Li 1.7175781147 0.3645429012 29.7290099617  
Li 3.4351562293 7.8380832214 31.1156540566  
Li 3.4351562293 10.3627877048 29.4265080430  
Li 3.4351562293 2.7714187779 29.6245447997  
Li 3.4351562293 5.6631456583 28.3584183518  
Li 3.4351562293 8.5631897389 26.2078058169  
Li 3.4351562293 11.3868331969 24.6778119655  
Li 3.4351562293 0.8752503260 27.2366612148  
Li 3.4351562293 3.9184614128 24.9993315961  
Li 3.4351562293 6.7262337620 23.3459009018  
Li 3.4351562293 9.7363347520 21.2785840352  
Li 3.4351562293 2.0172989308 22.3160905305  
Li 3.4351562293 4.1186265922 20.1739525261  
Li 3.4351562293 1.2049263915 32.1463829887  
Li 5.1527343440 8.0412417960 28.6991934071  
Li 5.1527343440 10.8490258247 27.0457723313  
Li 5.1527343440 3.3806437351 27.3672905878  
Li 5.1527343440 6.2043029948 25.8372974234  
Li 5.1527343440 9.1043402052 23.6866835145  
Li 5.1527343440 11.9960663986 22.4205522574  
Li 5.1527343440 1.5066038727 24.8084385904  
Li 5.1527343440 4.4047029679 22.6186000065  
Li 5.1527343440 6.9293992069 20.9294526189  
Li 5.1527343440 10.6488709508 31.8711479661  
Li 5.1527343440 1.1769236849 19.8987195646  
Li 5.1527343440 5.0311339357 30.7665178311  
Li 5.1527343440 0.3645429012 29.7290099617  

