&CONTROL
   calculation      = 'scf'
   verbosity        = 'high'
   restart_mode     = 'from_scratch'
   nstep            = 999
   tstress          = .false.
   tprnfor          = .true.
   outdir           = './Li/'
   prefix           = 'Lithium'
   etot_conv_thr    = 1e-05
   forc_conv_thr    = 0.000388
   disk_io          = 'minimal'
   pseudo_dir       = '/work/e89/e89/ba3g18/Repos/Pseudopotentials/Pslibrary'
/
&SYSTEM
   ibrav            = 4
   nbnd             = 108
   tot_charge       = 0.0
   ecutwfc          = 80.0
   ecutrho          = 800
   occupations      = 'smearing'
   degauss          = 0.01
   smearing         = 'cold'
   nspin            = 1
   input_dft        = 'pbe'
   lgcscf           = .true.
   gcscf_mu         = -4.904
   gcscf_conv_thr   = 0.001
   ntyp             = 1
   nat              = 48
   celldm(1)        = 18.360747
   celldm(3)        = 5.270332
/
&ELECTRONS
   electron_maxstep = 999
   scf_must_converge = .true.
   conv_thr         = 1e-16
   mixing_mode      = 'local-TF'
   mixing_beta      = 0.2
   diagonalization  = 'david'
   diago_thr_init   = 1e-12
   diago_david_ndim = 4
   diago_full_acc   = .true.
   startingwfc      = 'random'
/
&IONS
   ion_dynamics     = 'bfgs'
   upscale          = 1000000.0
   bfgs_ndim        = 1
/
&CELL
   press_conv_thr   = 0.1
   cell_dofree      = 'all'
/
&FCP
/
&RISM
/
ATOMIC_SPECIES
Li 6.94 Li.pbe-sl-kjpaw_psl.1.0.0.UPF

K_POINTS automatic
7 7 1  0 0 0

ATOMIC_POSITIONS angstrom
Li -0.0000000100 -0.0000093660 25.1831955898  
Li 2.4290356427 1.4024570543 21.2241554271  
Li 4.8580444100 2.8047897986 22.9538723455  
Li 0.0000000100 -0.0000014782 22.2051479261  
Li 2.4290265561 1.4024135081 24.1156176416  
Li 4.8580445000 2.8047522192 19.1782811562  
Li 0.0000000000 -0.0000642960 32.0291348058  
Li 2.4290208136 1.4023903506 27.0914056129  
Li 4.8580444100 2.8047656286 29.0017167393  
Li -0.0000000100 -0.0000171947 28.2530894536  
Li 2.4290177714 1.4023754428 29.9828627070  
Li 4.8580444200 2.8047877301 26.0235376875  
Li 2.4290270564 4.2071978049 25.1832309682  
Li 4.8580443900 5.6095548013 21.2240778189  
Li 7.2870635149 7.0120220802 22.9538530272  
Li 2.4290143693 4.2072335905 22.2052562664  
Li 4.8580444100 5.6095821004 24.1155702291  
Li 7.2870640907 7.0120740521 19.1784989887  
Li 2.4289952230 4.2072106237 32.0290675729  
Li 4.8580444000 5.6095766122 27.0913527766  
Li 7.2870635549 7.0119729485 29.0017235611  
Li 2.4290185281 4.2071785887 28.2530999474  
Li 4.8580444000 5.6095617820 29.9828193101  
Li 7.2870579682 7.0119925593 26.0235406612  
Li 4.8580444000 0.0000005238 25.1831948306  
Li 7.2870531773 1.4024570343 21.2241555771  
Li 9.7160888200 2.8047826486 22.9538734438  
Li 4.8580443900 -0.0000109594 22.2051780627  
Li 7.2870622639 1.4024135081 24.1156177216  
Li 9.7160887400 2.8047615289 19.1783888986  
Li 4.8580444000 -0.0000787923 32.0290748939  
Li 7.2870680064 1.4023903506 27.0914056629  
Li 9.7160888300 2.8047727388 29.0017199242  
Li 4.8580444000 -0.0000296965 28.2530874508  
Li 7.2870710486 1.4023754328 29.9828627470  
Li 9.7160888200 2.8047696103 26.0235577900  
Li 7.2870617537 4.2071978149 25.1832309682  
Li 9.7160888400 5.6095783531 21.2240773545  
Li 12.1451141351 7.0120220902 22.9538530372  
Li 7.2870744407 4.2072336105 22.2052562764  
Li 9.7160888300 5.6095930013 24.1155373939  
Li 12.1451135593 7.0120741621 19.1784989987  
Li 7.2870935870 4.2072106337 32.0290675629  
Li 9.7160888300 5.6095706661 27.0913602595  
Li 12.1451140952 7.0119729485 29.0017235611  
Li 7.2870702919 4.2071785887 28.2530999374  
Li 9.7160888300 5.6095704204 29.9827893046  
Li 12.1451196918 7.0119925693 26.0235406612  

