&CONTROL
   calculation      = 'relax'
   restart_mode     = 'from_scratch'
   tstress          = .false.
   tprnfor          = .true.
   outdir           = './'
   etot_conv_thr    = 1e-05
   forc_conv_thr    = 0.000388
   disk_io          = 'none'
   pseudo_dir       = '/iridisfs/home/ba3g18/Repos/Pseudopotentials/pslibrary.1.0.0/pbe/PSEUDOPOTENTIALS'
/
&SYSTEM
   ibrav            = 0
   nbnd             = 153
   ecutwfc          = 80
   ecutrho          = 800
   occupations      = 'smearing'
   degauss          = 0.01
   smearing         = 'cold'
   input_dft        = 'PBE'
   ntyp             = 1
   nat              = 68
/
&ELECTRONS
   electron_maxstep = 200
   conv_thr         = 1e-06
   mixing_mode      = 'local-TF'
   mixing_beta      = 0.2
   diagonalization  = 'david'
/
&IONS
   ion_dynamics     = 'bfgs'
   upscale          = 1000000.0
   bfgs_ndim        = 1
/
&CELL
   press_conv_thr   = 0.1
   cell_dofree      = 'all'
/
&FCP
/
&RISM
/
ATOMIC_SPECIES
Li 6.94 Li.pbe-sl-kjpaw_psl.1.0.0.UPF

K_POINTS automatic
7 7 1  0 0 0

CELL_PARAMETERS angstrom
9.71608884000000 0.00000000000000 0.00000000000000
-2.42902221000000 10.01511119000000 0.00000000000000
0.00000000000000 0.00000000000000 28.32702383000000

ATOMIC_POSITIONS angstrom
Li 0.0059906600 0.2343476600 7.4031943600  
Li -0.0044945800 5.9619607500 20.5926344700  
Li 2.4224794000 7.7232738300 19.0768668000  
Li 2.4232016800 1.9484227800 19.3813150500  
Li -0.0041072800 3.6239897800 18.1276946600  
Li 2.4244706700 5.3861635600 16.4832540200  
Li 2.4320616100 8.7952430400 13.1303479000  
Li -0.0045095700 9.4898010800 17.3888370500  
Li -0.0003269900 1.2132123900 15.6248569200  
Li 2.4275598100 2.9641475700 13.8288348500  
Li 0.0027109400 4.6620123200 12.2418713100  
Li 2.4347872700 6.3595586100 10.5376011000  
Li -0.0010334800 7.0837113500 14.8206337600  
Li 2.4309719400 0.4808450000 11.6645664400  
Li 0.0055293900 2.3104768300 9.7818301700  
Li 2.4364711800 3.7699255800 8.0046098100  
Li 0.0043993100 8.2120795100 8.9451413600  
Li -0.0055495500 0.6351452400 18.5451931600  
Li -0.0057643500 6.6011762000 17.7894271200  
Li 2.4263131200 8.2987236100 16.0851528800  
Li 2.4270707400 2.4647704300 16.6624809700  
Li -0.0030440200 4.1654980300 15.1966768400  
Li 2.4300575600 5.8770285900 13.5063924400  
Li 2.4331312000 9.3367428100 10.1993298000  
Li 0.0014593300 9.9965906000 14.4982052300  
Li 0.0003173400 1.7324144700 12.7021652900  
Li 2.4335355100 3.4709297900 10.9381942100  
Li 0.0065458000 5.2374605200 9.2501584200  
Li 2.4335058900 6.9987636700 7.7343911000  
Li 0.0045494000 7.5745690800 11.8437718400  
Li 2.4348462800 0.9972049700 8.9457524100  
Li -0.0058776600 2.7112815100 20.9238296300  
Li 2.4246225000 4.7486579300 19.3818882800  
Li -0.0074480600 9.1907909700 20.3224132200  
Li 4.8638700400 0.2343319900 7.4031938900  
Li 4.8535582200 5.9619487400 20.5926429800  
Li 7.2805423300 7.7232769200 19.0768691400  
Li 7.2812473800 1.9484274300 19.3813557900  
Li 4.8539334800 3.6239929600 18.1276926800  
Li 7.2825058000 5.3861658900 16.4832417200  
Li 7.2901150800 8.7952456700 13.1303525700  
Li 4.8535347000 9.4898124000 17.3888093800  
Li 4.8577272700 1.2132134300 15.6248570300  
Li 7.2856087400 2.9641500800 13.8288431700  
Li 4.8607521100 4.6620174800 12.2418687200  
Li 7.2928236400 6.3595473200 10.5375798800  
Li 4.8570140200 7.0837133100 14.8206454900  
Li 7.2890141700 0.4808669700 11.6644934500  
Li 4.8636097000 2.3104745500 9.7818277100  
Li 7.2945197100 3.7699878800 8.0046351300  
Li 4.8624396700 8.2120674600 8.9451453100  
Li 4.8525071300 0.6351457500 18.5451912900  
Li 4.8522836800 6.6011907600 17.7894445100  
Li 7.2843621900 8.2987261600 16.0851543200  
Li 7.2851159100 2.4647741500 16.6625016900  
Li 4.8549961800 4.1654960100 15.1966708200  
Li 7.2880998500 5.8770291700 13.5063795700  
Li 7.2911736700 9.3367428600 10.1993306200  
Li 4.8595000900 9.9965960600 14.4981599900  
Li 4.8583660600 1.7324192000 12.7021657400  
Li 7.2915785000 3.4709308300 10.9382001700  
Li 4.8645629000 5.2374551700 9.2501546700  
Li 7.2915586600 6.9987885400 7.7343832900  
Li 4.8626034400 7.5745808900 11.8437840500  
Li 7.2928909100 0.9971872400 8.9456167000  
Li 4.8521150700 2.7112701700 20.9238273600  
Li 7.2826677300 4.7486596100 19.3818748600  
Li 4.8505895100 9.1907610300 20.3223845900  

