&CONTROL
   calculation      = 'relax'
   verbosity        = 'high'
   restart_mode     = 'from_scratch'
   nstep            = 999
   tstress          = .false.
   tprnfor          = .true.
   outdir           = './Li/'
   prefix           = 'Lithium'
   etot_conv_thr    = 1e-05
   forc_conv_thr    = 0.000388
   disk_io          = 'minimal'
   pseudo_dir       = '/home/mmm1182/Repos/Pseudopotentials/pslibrary'
/
&SYSTEM
   ibrav            = 12
   nbnd             = 153
   tot_charge       = 0.0
   ecutwfc          = 80.0
   ecutrho          = 800
   occupations      = 'smearing'
   degauss          = 0.01
   smearing         = 'cold'
   nspin            = 1
   input_dft        = 'pbe'
   lgcscf           = .true.
   gcscf_mu         = -3.904
   gcscf_conv_thr   = 0.001
   ntyp             = 1
   nat              = 68
   celldm(1)        = 18.360747
   celldm(2)        = 1.0606597768257267
   celldm(3)        = 5.518976
   celldm(4)        = -0.23570234816312513
/
&ELECTRONS
   electron_maxstep = 999
   scf_must_converge = .true.
   conv_thr         = 1e-06
   mixing_mode      = 'local-TF'
   mixing_beta      = 0.2
   diagonalization  = 'david'
   diago_thr_init   = 1e-12
   diago_david_ndim = 4
   diago_full_acc   = .true.
   startingwfc      = 'random'
/
&IONS
   ion_dynamics     = 'bfgs'
   upscale          = 1000000.0
   bfgs_ndim        = 1
/
&CELL
   press_conv_thr   = 0.1
   cell_dofree      = 'all'
/
&FCP
/
&RISM
/
ATOMIC_SPECIES
Li 6.94 Li.pbe-sl-kjpaw_psl.1.0.0.UPF

K_POINTS automatic
7 7 1  0 0 0

ATOMIC_POSITIONS angstrom
Li -0.0030933265 0.5724616662 19.8665516844  
Li 0.0025178633 5.8443365175 33.4591556380  
Li 2.4310404669 7.7207338373 31.7202248423  
Li 2.4322667513 1.9031063226 31.9365445631  
Li 0.0028271333 3.5366864345 30.8468834169  
Li 2.4297690702 5.3853005897 29.0783193520  
Li 2.4284192770 8.8260198605 25.7567443113  
Li 0.0024140215 9.3867295855 30.1366592125  
Li 0.0013376367 1.1854998220 28.2560553079  
Li 2.4282879910 2.9996616988 26.4089583740  
Li -0.0015677498 4.6799454645 24.9002805146  
Li 2.4273180348 6.4711118222 23.0742054254  
Li 0.0005663248 7.0354443908 27.5362827843  
Li 2.4275046179 0.4999240993 24.3810705208  
Li -0.0033112038 2.3446704783 22.4799263185  
Li 2.4272572775 3.7388571474 20.4527993915  
Li -0.0022773774 8.2198658697 21.6912932496  
Li 0.0032058545 0.6010104125 31.1426733380  
Li 0.0017175157 6.4896154907 30.5486351735  
Li 2.4305771807 8.2807914741 28.7234977654  
Li 2.4305312063 2.4456837227 29.2425362320  
Li 0.0005875023 4.1347030191 27.8671847425  
Li 2.4284588427 5.9252856426 26.0877379832  
Li 2.4261957081 9.4240298746 22.7758603172  
Li 0.0007265340 9.9610662832 27.2152024038  
Li -0.0013721064 1.7601605697 25.3678019531  
Li 2.4266130588 3.5740256000 23.4865145793  
Li -0.0019982857 5.2399776238 21.9020200947  
Li 2.4265153599 7.1163091966 20.1621796990  
Li -0.0007540727 7.5754063828 24.5452137413  
Li 2.4257773856 1.0425683448 21.6858080157  
Li 0.0037916852 2.3732763183 33.7546973785  
Li 2.4313149615 4.7408438085 31.9307800016  
Li 0.0017485156 9.2218342941 33.1686931413  
Li 4.8540011801 0.5723758796 19.8665926329  
Li 4.8606775823 5.8442853950 33.4592194842  
Li 7.2891561808 7.7207510975 31.7202020750  
Li 7.2903104212 1.9031861002 31.9368503747  
Li 4.8608397957 3.5366936757 30.8468741626  
Li 7.2877902170 5.3853032241 29.0782267724  
Li 7.2865044383 8.8260183313 25.7567921033  
Li 4.8604558026 9.3867653421 30.1365701560  
Li 4.8594108996 1.1855080278 28.2560915638  
Li 7.2863644488 2.9996764912 26.4090017157  
Li 4.8564866970 4.6799652606 24.9002328008  
Li 7.2853238551 6.4710437530 23.0741158505  
Li 4.8586272925 7.0354588140 27.5363593120  
Li 7.2855403554 0.5000113111 24.3806568638  
Li 4.8548842302 2.3446313868 22.4799325031  
Li 7.2853360830 3.7391487481 20.4528481073  
Li 4.8557415059 8.2197256731 21.6915363135  
Li 4.8613149962 0.6009945638 31.1426652670  
Li 4.8597675364 6.4896573363 30.5487187039  
Li 7.2886353713 8.2807970249 28.7234876509  
Li 7.2885870046 2.4456669521 29.2426853076  
Li 4.8586205317 4.1347062798 27.8672017727  
Li 7.2864832418 5.9252733197 26.0876734073  
Li 7.2842748885 9.4240161329 22.7758631431  
Li 4.8587515117 9.9611157909 27.2150400971  
Li 4.8566885000 1.7601657730 25.3678184338  
Li 7.2846611436 3.5740038341 23.4864939415  
Li 4.8559426671 5.2399130538 21.9020120469  
Li 7.2844080402 7.1164420222 20.1621588391  
Li 4.8573253943 7.5754305515 24.5453342203  
Li 7.2838354369 1.0424094324 21.6851186023  
Li 4.8614098701 2.3732412904 33.7546915117  
Li 7.2893470396 4.7409038204 31.9306491168  
Li 4.8597934876 9.2216802458 33.1686032525  

