&CONTROL
   calculation      = 'relax'
   verbosity        = 'high'
   restart_mode     = 'from_scratch'
   nstep            = 999
   tstress          = .false.
   tprnfor          = .true.
   outdir           = './Li/'
   prefix           = 'Lithium'
   etot_conv_thr    = 1e-05
   forc_conv_thr    = 0.000388
   disk_io          = 'minimal'
   pseudo_dir       = '/home/mmm1182/Repos/Pseudopotentials/pslibrary'
/
&SYSTEM
   ibrav            = 12
   nbnd             = 171
   tot_charge       = 0.0
   ecutwfc          = 80.0
   ecutrho          = 800
   occupations      = 'smearing'
   degauss          = 0.01
   smearing         = 'cold'
   nspin            = 1
   input_dft        = 'pbe'
   lgcscf           = .true.
   gcscf_mu         = -3.904
   gcscf_conv_thr   = 0.001
   ntyp             = 1
   nat              = 76
   celldm(1)        = 18.360747
   celldm(2)        = 1.1180342461771913
   celldm(3)        = 5.615419
   celldm(4)        = 0.22360674626453153
/
&ELECTRONS
   electron_maxstep = 999
   scf_must_converge = .true.
   conv_thr         = 1e-06
   mixing_mode      = 'local-TF'
   mixing_beta      = 0.2
   diagonalization  = 'david'
   diago_thr_init   = 1e-12
   diago_david_ndim = 4
   diago_full_acc   = .true.
   startingwfc      = 'random'
/
&IONS
   ion_dynamics     = 'bfgs'
   upscale          = 1000000.0
   bfgs_ndim        = 1
/
&CELL
   press_conv_thr   = 0.1
   cell_dofree      = 'all'
/
&FCP
/
&RISM
/
ATOMIC_SPECIES
Li 6.94 Li.pbe-sl-kjpaw_psl.1.0.0.UPF

K_POINTS automatic
7 6 1  0 0 0

ATOMIC_POSITIONS angstrom
Li 0.0096659774 -0.7831726409 34.5536694815  
Li 2.4192181546 7.4276432390 20.2906788059  
Li 2.4188759146 3.7029518883 21.2710296066  
Li 2.4183806504 0.5766417544 22.4924776748  
Li 4.8474964487 7.8659784725 22.5533754386  
Li 4.8476735523 4.2682924946 23.3230370489  
Li 4.8473621150 1.1379588582 24.2673096047  
Li 2.4205323492 8.2995096227 25.0787343659  
Li 2.4225197391 5.0486004320 25.8952282965  
Li 2.4241037888 1.6573624406 26.7036558767  
Li 4.8603958424 8.8521224002 27.5603809436  
Li 4.8636407810 5.5669994308 28.2521331097  
Li 4.8652464379 2.3090559362 29.1978800177  
Li 2.4385829344 9.6090632756 29.6299957814  
Li 2.4393229537 6.0582910823 30.4763162064  
Li 2.4396744928 2.8194534346 31.5711829671  
Li 4.8686959743 10.0405246909 32.1967205255  
Li 4.8687305003 7.1312210858 33.3084032809  
Li 4.8677112375 3.3449718251 33.8552571087  
Li 2.4183801077 9.4642398652 22.3679239779  
Li 2.4182779063 6.0964307252 22.9909739577  
Li 2.4186238841 2.8573876120 24.0784405440  
Li 4.8485837032 9.8925526276 24.9240886322  
Li 4.8507771915 6.6076115221 25.3552725932  
Li 4.8523927705 3.3499758936 26.2994365462  
Li 4.8558035696 0.0637882548 26.9903549434  
Li 2.4337422763 7.2576541279 27.8456917612  
Li 2.4351572462 3.8675940546 28.6544873619  
Li 2.4377468892 0.6159962772 29.4758206931  
Li 4.8685618174 7.7792996090 30.2891424968  
Li 4.8686262783 4.6485499892 31.2392420263  
Li 4.8686088438 1.0501512555 32.0111999117  
Li 2.4398046598 8.3397411409 32.0700495766  
Li 2.4390994789 5.2146151792 33.2935151548  
Li 2.4389333570 1.4871171855 34.2810607473  
Li 4.8484281825 9.6944802327 20.0183637762  
Li 4.8482417580 5.5727507423 20.7148922099  
Li 4.8475933747 1.7876137737 21.2602460012  
Li 4.8679864651 -0.7830542871 34.5539839679  
Li 7.2771900341 7.4275454613 20.2909809237  
Li 7.2772076869 3.7030249245 21.2709444079  
Li 7.2763717551 0.5764392750 22.4924410199  
Li 9.7055441505 7.8664262821 22.5533060769  
Li 9.7054743959 4.2678946403 23.3229914911  
Li 9.7056276311 1.1380369815 24.2671222813  
Li 7.2788668845 8.2998674484 25.0791635134  
Li 7.2808426185 5.0487923474 25.8951354366  
Li 7.2825623852 1.6577364110 26.7041293198  
Li 9.7182014243 8.8517175362 27.5603476155  
Li 9.7215965924 5.5670536144 28.2522745296  
Li 9.7231899023 2.3087947552 29.1978572959  
Li 7.2963109085 9.6087139564 29.6300202007  
Li 7.2980106097 6.0590418072 30.4766288412  
Li 7.2974806193 2.8194016924 31.5710113796  
Li 9.7270782433 10.0405505705 32.1968441299  
Li 9.7265033364 7.1309800822 33.3079771098  
Li 9.7259496627 3.3449321886 33.8553950924  
Li 7.2761997335 9.4643499104 22.3682246087  
Li 7.2767170339 6.0965725597 22.9910857537  
Li 7.2762672811 2.8571330936 24.0785821484  
Li 9.7068898053 9.8930818415 24.9243999904  
Li 9.7087837414 6.6074517077 25.3553076856  
Li 9.7103347219 3.3499614512 26.2993484654  
Li 9.7137484278 0.0632683955 26.9900794054  
Li 7.2914406573 7.2574753765 27.8458375830  
Li 7.2933288808 3.8679590101 28.6549034790  
Li 7.2952542960 0.6158545617 29.4757689826  
Li 9.7268905158 7.7796972267 30.2890993253  
Li 9.7265461630 4.6480432231 31.2393180608  
Li 9.7266691207 1.0503707164 32.0111629911  
Li 7.2977644705 8.3403325745 32.0702876241  
Li 7.2971005024 5.2143593612 33.2932769173  
Li 7.2968488281 1.4873861747 34.2808411337  
Li 9.7061112215 9.6946544602 20.0179383521  
Li 9.7064420262 5.5729047422 20.7149067808  
Li 9.7056229707 1.7872557067 21.2599496459  

