&CONTROL
   calculation      = 'relax'
   verbosity        = 'high'
   restart_mode     = 'from_scratch'
   nstep            = 999
   tstress          = .false.
   tprnfor          = .true.
   outdir           = './Li/'
   prefix           = 'Lithium'
   etot_conv_thr    = 1e-05
   forc_conv_thr    = 0.000388
   disk_io          = 'minimal'
   pseudo_dir       = '/work/e89/e89/ba3g18/Repos/Pseudopotentials/Pslibrary'
/
&SYSTEM
   ibrav            = 12
   nbnd             = 153
   tot_charge       = 0.0
   ecutwfc          = 80.0
   ecutrho          = 800
   occupations      = 'smearing'
   degauss          = 0.01
   smearing         = 'cold'
   nspin            = 1
   input_dft        = 'pbe'
   lgcscf           = .true.
   gcscf_mu         = -2.904
   gcscf_conv_thr   = 0.001
   ntyp             = 1
   nat              = 68
   celldm(1)        = 18.360747
   celldm(2)        = 1.0606597768257267
   celldm(3)        = 5.518976
   celldm(4)        = -0.23570234816312513
/
&ELECTRONS
   electron_maxstep = 999
   scf_must_converge = .true.
   conv_thr         = 1e-06
   mixing_mode      = 'local-TF'
   mixing_beta      = 0.2
   diagonalization  = 'david'
   diago_thr_init   = 1e-12
   diago_david_ndim = 4
   diago_full_acc   = .true.
   startingwfc      = 'random'
/
&IONS
   ion_dynamics     = 'bfgs'
   upscale          = 1000000.0
   bfgs_ndim        = 1
/
&CELL
   press_conv_thr   = 0.1
   cell_dofree      = 'all'
/
&FCP
/
&RISM
/
ATOMIC_SPECIES
Li 6.94 Li.pbe-sl-kjpaw_psl.1.0.0.UPF

K_POINTS automatic
7 7 1  0 0 0

ATOMIC_POSITIONS angstrom
Li -0.0038681994 0.3374833782 19.8856082618  
Li 0.0025475689 5.8844902416 33.3210972349  
Li 2.4314759063 7.6497573434 31.6026472911  
Li 2.4325359990 1.8586311309 31.9842041010  
Li 0.0030402291 3.5351162010 30.8240861097  
Li 2.4302985466 5.3555785722 29.0859659862  
Li 2.4280801850 8.8232260096 25.7522134635  
Li 0.0025232525 9.4075688114 30.0563669105  
Li 0.0014124566 1.1838711399 28.2599884193  
Li 2.4284572478 2.9787861809 26.4845851808  
Li -0.0017572517 4.6948908845 24.9358644763  
Li 2.4268644078 6.4551752455 23.1658687232  
Li 0.0005811858 7.0492745190 27.4932387129  
Li 2.4274562401 0.5351566570 24.3028312411  
Li -0.0036599802 2.3646256244 22.4819562729  
Li 2.4265799188 3.8737835095 20.5827616696  
Li -0.0022193403 8.2891629568 21.7176141173  
Li 0.0036031638 0.5810122557 31.1408975133  
Li 0.0021642800 6.5055595290 30.4569950015  
Li 2.4307768760 8.2658422478 28.6870005896  
Li 2.4305829956 2.4104483520 29.3200900783  
Li 0.0009313631 4.1375087265 27.8706511641  
Li 2.4284431818 5.9114602247 26.1296197532  
Li 2.4259743380 9.4256160434 22.7987816161  
Li 0.0005622338 9.9819427692 27.1383142477  
Li -0.0014391313 1.7617546012 25.3628529396  
Li 2.4265021403 3.5531563843 23.5665141516  
Li -0.0024452957 5.3109877311 22.0202231813  
Li 2.4264758958 7.0762202351 20.3017590970  
Li -0.0012790981 7.6051485743 24.5368882517  
Li 2.4255101556 1.0870020127 21.6387624409  
Li 0.0041906619 2.6081928760 33.7372526825  
Li 2.4312478976 4.6715822860 31.9052368821  
Li 0.0024288623 9.0869144825 33.0401033195  
Li 4.8537393163 0.3374090667 19.8856148314  
Li 4.8606410859 5.8844556870 33.3211496552  
Li 7.2895816557 7.6497692168 31.6026442383  
Li 7.2905881342 1.8586535692 31.9843787653  
Li 4.8610621824 3.5351142782 30.8240792322  
Li 7.2883117526 5.3555801964 29.0859198054  
Li 7.2861577495 8.8232425194 25.7522210447  
Li 4.8605616667 9.4075886119 30.0562962856  
Li 4.8594821923 1.1838697345 28.2600104101  
Li 7.2865191345 2.9787948824 26.4846281957  
Li 4.8562739003 4.6948896625 24.9358559694  
Li 7.2848802073 6.4551433641 23.1658028734  
Li 4.8586392978 7.0492749927 27.4932908107  
Li 7.2854883177 0.5351972319 24.3026177653  
Li 4.8544679894 2.3646082751 22.4819625769  
Li 7.2846635325 3.8739542124 20.5828563239  
Li 4.8558155194 8.2891258686 21.7176954814  
Li 4.8616864786 0.5810005828 31.1409079414  
Li 4.8602221271 6.5055908824 30.4570585890  
Li 7.2888418201 8.2658523236 28.6870018924  
Li 7.2886428448 2.4104507431 29.3201842180  
Li 4.8589587101 4.1374988294 27.8706381787  
Li 7.2864711308 5.9114636041 26.1295756349  
Li 7.2840525309 9.4256252397 22.7987774310  
Li 4.8585884788 9.9819550781 27.1381958671  
Li 4.8566260323 1.7617561054 25.3628741271  
Li 7.2845505188 3.5531575269 23.5665451236  
Li 4.8555204569 5.3109563870 22.0202087399  
Li 7.2844633780 7.0763021739 20.3017191743  
Li 4.8567987756 7.6051657298 24.5369514831  
Li 7.2835511068 1.0869596941 21.6383752662  
Li 4.8620338021 2.6081581327 33.7372479933  
Li 7.2892818218 4.6715979813 31.9051770360  
Li 4.8604661292 9.0868179180 33.0400043713  

