&CONTROL
   calculation      = 'relax'
   verbosity        = 'high'
   restart_mode     = 'from_scratch'
   nstep            = 999
   tstress          = .false.
   tprnfor          = .true.
   outdir           = './Li/'
   prefix           = 'Lithium'
   etot_conv_thr    = 1e-05
   forc_conv_thr    = 0.000388
   disk_io          = 'minimal'
   pseudo_dir       = '/home/mmm1182/Repos/Pseudopotentials/pslibrary'
/
&SYSTEM
   ibrav            = 4
   nbnd             = 108
   tot_charge       = 0.0
   ecutwfc          = 80.0
   ecutrho          = 800
   occupations      = 'smearing'
   degauss          = 0.01
   smearing         = 'cold'
   nspin            = 1
   input_dft        = 'pbe'
   lgcscf           = .true.
   gcscf_mu         = -4.404
   gcscf_conv_thr   = 0.001
   ntyp             = 1
   nat              = 48
   celldm(1)        = 18.360747
   celldm(3)        = 5.270332
/
&ELECTRONS
   electron_maxstep = 999
   scf_must_converge = .true.
   conv_thr         = 1e-06
   mixing_mode      = 'local-TF'
   mixing_beta      = 0.2
   diagonalization  = 'david'
   diago_thr_init   = 1e-12
   diago_david_ndim = 4
   diago_full_acc   = .true.
   startingwfc      = 'random'
/
&IONS
   ion_dynamics     = 'bfgs'
   upscale          = 1000000.0
   bfgs_ndim        = 1
/
&CELL
   press_conv_thr   = 0.1
   cell_dofree      = 'all'
/
&FCP
/
&RISM
/
ATOMIC_SPECIES
Li 6.94 Li.pbe-sl-kjpaw_psl.1.0.0.UPF

K_POINTS automatic
7 7 1  0 0 0

ATOMIC_POSITIONS angstrom
Li -0.0000000100 -0.0000085991 25.1610364443  
Li 2.4290019754 1.4024299081 21.2889824786  
Li 4.8580444100 2.8048239155 22.9634525899  
Li 0.0000000100 -0.0000136888 22.1397912483  
Li 2.4290325977 1.4024215673 24.1469085563  
Li 4.8580445000 2.8046432654 19.7878658907  
Li 0.0000000000 -0.0000932471 31.4183523580  
Li 2.4290361386 1.4023707576 27.0604933591  
Li 4.8580444100 2.8047526303 29.0673760464  
Li -0.0000000100 -0.0000024789 28.2435568154  
Li 2.4290317691 1.4023706394 29.9181904940  
Li 4.8580444200 2.8047974124 26.0463079491  
Li 2.4290087145 4.2072042708 25.1610294037  
Li 4.8580443900 5.6095997045 21.2887773258  
Li 7.2870667210 7.0120209362 22.9634593558  
Li 2.4290076469 4.2072405044 22.1397758798  
Li 4.8580444100 5.6095784473 24.1467841913  
Li 7.2870665478 7.0121707962 19.7878497616  
Li 2.4289780250 4.2072268263 31.4184117062  
Li 4.8580444000 5.6095951050 27.0604106931  
Li 7.2870562859 7.0119628020 29.0673393358  
Li 2.4290106342 4.2071611132 28.2435776447  
Li 4.8580444000 5.6095280217 29.9181239090  
Li 7.2870785402 7.0119925317 26.0462773473  
Li 4.8580444000 -0.0000073341 25.1610357979  
Li 7.2870868446 1.4024298881 21.2889826286  
Li 9.7160888200 2.8047953896 22.9634736801  
Li 4.8580443900 0.0000360222 22.1397757985  
Li 7.2870562223 1.4024215673 24.1469086363  
Li 9.7160887400 2.8046777391 19.7878737893  
Li 4.8580444000 -0.0001001769 31.4183566938  
Li 7.2870526814 1.4023707576 27.0604934091  
Li 9.7160888300 2.8047674686 29.0674468753  
Li 4.8580444000 -0.0000289983 28.2435349242  
Li 7.2870570509 1.4023706294 29.9181905340  
Li 9.7160888200 2.8047558710 26.0463481960  
Li 7.2870800956 4.2072042808 25.1610294037  
Li 9.7160888400 5.6096373712 21.2887823261  
Li 12.1451109290 7.0120209462 22.9634593658  
Li 7.2870811631 4.2072405244 22.1397758898  
Li 9.7160888300 5.6095825619 24.1467753291  
Li 12.1451111022 7.0121709062 19.7878497716  
Li 7.2871107850 4.2072268363 31.4184116962  
Li 9.7160888300 5.6095523219 27.0603839889  
Li 12.1451213642 7.0119628020 29.0673393358  
Li 7.2870781858 4.2071611132 28.2435776347  
Li 9.7160888300 5.6095793278 29.9180467424  
Li 12.1450991198 7.0119925417 26.0462773473  

