&CONTROL
   calculation      = 'relax'
   verbosity        = 'high'
   restart_mode     = 'from_scratch'
   nstep            = 999
   tstress          = .false.
   tprnfor          = .true.
   outdir           = './Li/'
   prefix           = 'Lithium'
   etot_conv_thr    = 1e-05
   forc_conv_thr    = 0.000388
   disk_io          = 'minimal'
   pseudo_dir       = '/work/e89/e89/ba3g18/Repos/Pseudopotentials/Pslibrary'
/
&SYSTEM
   ibrav            = 12
   nbnd             = 153
   tot_charge       = 0.0
   ecutwfc          = 80.0
   ecutrho          = 800
   occupations      = 'smearing'
   degauss          = 0.01
   smearing         = 'cold'
   nspin            = 1
   input_dft        = 'pbe'
   lgcscf           = .true.
   gcscf_mu         = -2.904
   gcscf_conv_thr   = 0.001
   ntyp             = 1
   nat              = 68
   celldm(1)        = 18.360747
   celldm(2)        = 1.0606597768257267
   celldm(3)        = 5.518976
   celldm(4)        = -0.23570234816312513
/
&ELECTRONS
   electron_maxstep = 999
   scf_must_converge = .true.
   conv_thr         = 1e-06
   mixing_mode      = 'local-TF'
   mixing_beta      = 0.2
   diagonalization  = 'david'
   diago_thr_init   = 1e-12
   diago_david_ndim = 4
   diago_full_acc   = .true.
   startingwfc      = 'random'
/
&IONS
   ion_dynamics     = 'bfgs'
   upscale          = 1000000.0
   bfgs_ndim        = 1
/
&CELL
   press_conv_thr   = 0.1
   cell_dofree      = 'all'
/
&FCP
/
&RISM
/
ATOMIC_SPECIES
Li 6.94 Li.pbe-sl-kjpaw_psl.1.0.0.UPF

K_POINTS automatic
7 7 1  0 0 0

ATOMIC_POSITIONS angstrom
Li -0.0035748034 0.4216758659 19.9796977952  
Li 0.0022840593 5.8517682280 33.3159623024  
Li 2.4308682077 7.6779257205 31.6754549718  
Li 2.4324577197 1.8764492815 31.9879918365  
Li 0.0024638272 3.5421089697 30.8169212554  
Li 2.4300542929 5.3657414310 29.0768281538  
Li 2.4286142726 8.8318178949 25.7418044675  
Li 0.0022234702 9.4041621286 30.0633625874  
Li 0.0014652384 1.1832077908 28.2609823575  
Li 2.4282390878 2.9891245463 26.4511975202  
Li -0.0016811959 4.6864417581 24.9277479813  
Li 2.4276842527 6.4541079363 23.1414780477  
Li 0.0004120944 7.0454466331 27.5035318887  
Li 2.4272243993 0.5186690527 24.3447432562  
Li -0.0031323759 2.3717571252 22.4624578278  
Li 2.4275317058 3.8236994962 20.5846089568  
Li -0.0024234289 8.2574717101 21.6860420268  
Li 0.0030433029 0.5738791811 31.1604010334  
Li 0.0013441434 6.5066270568 30.4813866511  
Li 2.4306984474 8.2742906598 28.6951198376  
Li 2.4308169036 2.4269301568 29.2781936187  
Li 0.0003990643 4.1289153149 27.8810637973  
Li 2.4286124555 5.9152892944 26.1193248087  
Li 2.4265525409 9.4186253734 22.8059493466  
Li 0.0007803573 9.9716004346 27.1717200533  
Li -0.0014925753 1.7624086506 25.3618665728  
Li 2.4268027067 3.5565626114 23.5595280465  
Li -0.0018328816 5.2828214110 21.9474144592  
Li 2.4267371276 7.1089348059 20.3068928611  
Li -0.0010360998 7.5949873983 24.5460186470  
Li 2.4255908850 1.0691929417 21.6350108079  
Li 0.0040545608 2.5240107985 33.6431582068  
Li 2.4314543933 4.7032858025 31.9367996525  
Li 0.0014716900 9.1369786438 33.0382541662  
Li 4.8538174640 0.4215888668 19.9797047596  
Li 4.8603910937 5.8517123771 33.3160062972  
Li 7.2889859066 7.6779410825 31.6754539136  
Li 7.2905030039 1.8764856897 31.9882134423  
Li 4.8604896518 3.5421127784 30.8169115381  
Li 7.2880672179 5.3657438065 29.0767730958  
Li 7.2866866410 8.8318295497 25.7418165199  
Li 4.8602651211 9.4041978072 30.0632929893  
Li 4.8595348789 1.1832137966 28.2609987206  
Li 7.2863002720 2.9891248051 26.4512469260  
Li 4.8563528649 4.6864438939 24.9277359895  
Li 7.2856982869 6.4540552768 23.1413971670  
Li 4.8584689387 7.0454500090 27.5035896627  
Li 7.2852582637 0.5187291085 24.3444798002  
Li 4.8550398055 2.3717390336 22.4624581943  
Li 7.2856202380 3.8239491892 20.5847108471  
Li 4.8555991824 8.2574002517 21.6861573305  
Li 4.8611490061 0.5738722242 31.1604064563  
Li 4.8594011308 6.5066782268 30.4814616727  
Li 7.2887636905 8.2742969519 28.6951227221  
Li 7.2888725657 2.4269261755 29.2783051701  
Li 4.8584275929 4.1289091612 27.8810441658  
Li 7.2866420247 5.9152906874 26.1192799529  
Li 7.2846232098 9.4186258659 22.8059427267  
Li 4.8588079380 9.9716244765 27.1715647010  
Li 4.8565761550 1.7624188085 25.3618814803  
Li 7.2848465795 3.5565434195 23.5595433994  
Li 4.8561080753 5.2827803799 21.9473996232  
Li 7.2847125480 7.1090556897 20.3068619072  
Li 4.8570429548 7.5950057132 24.5461045566  
Li 7.2836384609 1.0691190449 21.6345040904  
Li 4.8618073522 2.5239720750 33.6431513919  
Li 7.2894962262 4.7033147229 31.9367231258  
Li 4.8595078112 9.1368418234 33.0381497420  

