&CONTROL
   calculation      = 'relax'
   verbosity        = 'high'
   restart_mode     = 'from_scratch'
   nstep            = 999
   tstress          = .false.
   tprnfor          = .true.
   outdir           = './Li/'
   prefix           = 'Lithium'
   etot_conv_thr    = 1e-05
   forc_conv_thr    = 0.000388
   disk_io          = 'minimal'
   pseudo_dir       = '/work/e89/e89/ba3g18/Repos/Pseudopotentials/Pslibrary'
/
&SYSTEM
   ibrav            = 12
   nbnd             = 81
   tot_charge       = 0.0
   ecutwfc          = 80.0
   ecutrho          = 800
   occupations      = 'smearing'
   degauss          = 0.01
   smearing         = 'cold'
   nspin            = 1
   input_dft        = 'pbe'
   lgcscf           = .true.
   gcscf_mu         = -1.404
   gcscf_conv_thr   = 0.001
   ntyp             = 1
   nat              = 36
   celldm(1)        = 18.360747
   celldm(2)        = 0.7905694150420948
   celldm(3)        = 5.12718
   celldm(4)        = 0.31622776601683794
/
&ELECTRONS
   electron_maxstep = 999
   scf_must_converge = .true.
   conv_thr         = 1e-06
   mixing_mode      = 'local-TF'
   mixing_beta      = 0.2
   diagonalization  = 'david'
   diago_thr_init   = 1e-12
   diago_david_ndim = 4
   diago_full_acc   = .true.
   startingwfc      = 'random'
/
&IONS
   ion_dynamics     = 'bfgs'
   upscale          = 1000000.0
   bfgs_ndim        = 1
/
&CELL
   press_conv_thr   = 0.1
   cell_dofree      = 'all'
/
&FCP
/
&RISM
/
ATOMIC_SPECIES
Li 6.94 Li.pbe-sl-kjpaw_psl.1.0.0.UPF

K_POINTS automatic
7 9 1  0 0 0

ATOMIC_POSITIONS angstrom
Li 0.0001138205 -0.0724229712 29.6422064876  
Li 2.4291058885 3.9869968387 20.6692632075  
Li 2.4292618958 0.9213315465 21.8176594262  
Li 4.8582428114 4.7742993163 22.9301245869  
Li 4.8581016747 1.6497604053 23.9532900049  
Li 2.4289834065 5.6997251958 25.2090231235  
Li 2.4287822566 2.3961777567 26.2927673487  
Li 4.8578762035 6.4629111224 27.5707931183  
Li 4.8580712628 3.2697919075 28.8254989625  
Li 2.4291890697 6.4918658460 22.2453287405  
Li 2.4292627521 3.2715499040 23.5233538493  
Li 4.8580779611 7.2550521060 24.6071318860  
Li 4.8579905309 4.0179243309 25.8628488728  
Li 4.8578448269 0.8934192543 26.8860385608  
Li 2.4287739906 4.7463935110 27.9984778838  
Li 2.4289492128 1.6807281243 29.1468081974  
Li 4.8579402095 5.7401400084 20.1739143763  
Li 4.8580212192 2.3979691936 20.9906180000  
Li 4.8581451159 -0.0724371797 29.6422173827  
Li 7.2871470664 3.9869934926 20.6692797377  
Li 7.2873123792 0.9213324245 21.8176714185  
Li 9.7162821187 4.7743027371 22.9301313947  
Li 9.7161498375 1.6497640812 23.9532853999  
Li 7.2870284889 5.6997348198 25.2090216828  
Li 7.2868272854 2.3961738336 26.2927838826  
Li 9.7159247700 6.4629126617 27.5707966780  
Li 9.7161064057 3.2697699768 28.8254980991  
Li 7.2872327438 6.4918676661 22.2453264571  
Li 7.2873051069 3.2715550532 23.5233749256  
Li 9.7161327076 7.2550470000 24.6071386284  
Li 9.7160250048 4.0179263207 25.8628509098  
Li 9.7158968636 0.8934128073 26.8860253602  
Li 7.2868295962 4.7463916073 27.9984685116  
Li 7.2869763445 1.6807211900 29.1468249424  
Li 9.7159795531 5.7401455988 20.1739247110  
Li 9.7160689735 2.3979767206 20.9906172024  

