&CONTROL
   calculation      = 'relax'
   verbosity        = 'high'
   restart_mode     = 'from_scratch'
   nstep            = 999
   tstress          = .false.
   tprnfor          = .true.
   outdir           = './Li/'
   prefix           = 'Lithium'
   etot_conv_thr    = 1e-05
   forc_conv_thr    = 0.000388
   disk_io          = 'minimal'
   pseudo_dir       = '/work/e89/e89/ba3g18/Repos/Pseudopotentials/Pslibrary'
/
&SYSTEM
   ibrav            = 12
   nbnd             = 81
   tot_charge       = 0.0
   ecutwfc          = 80.0
   ecutrho          = 800
   occupations      = 'smearing'
   degauss          = 0.01
   smearing         = 'cold'
   nspin            = 1
   input_dft        = 'pbe'
   lgcscf           = .true.
   gcscf_mu         = -2.404
   gcscf_conv_thr   = 0.001
   ntyp             = 1
   nat              = 36
   celldm(1)        = 18.360747
   celldm(2)        = 0.7905694150420948
   celldm(3)        = 5.12718
   celldm(4)        = 0.31622776601683794
/
&ELECTRONS
   electron_maxstep = 999
   scf_must_converge = .true.
   conv_thr         = 1e-06
   mixing_mode      = 'local-TF'
   mixing_beta      = 0.2
   diagonalization  = 'david'
   diago_thr_init   = 1e-12
   diago_david_ndim = 4
   diago_full_acc   = .true.
   startingwfc      = 'random'
/
&IONS
   ion_dynamics     = 'bfgs'
   upscale          = 1000000.0
   bfgs_ndim        = 1
/
&CELL
   press_conv_thr   = 0.1
   cell_dofree      = 'all'
/
&FCP
/
&RISM
/
ATOMIC_SPECIES
Li 6.94 Li.pbe-sl-kjpaw_psl.1.0.0.UPF

K_POINTS automatic
7 9 1  0 0 0

ATOMIC_POSITIONS angstrom
Li 0.0017385373 -0.6975888445 29.8965283196  
Li 2.4269704056 3.9924554282 20.5695415100  
Li 2.4268567104 0.7836928297 22.3023656678  
Li 4.8564001596 4.8794798377 22.6323554483  
Li 4.8569586071 1.5477987148 24.1657126230  
Li 2.4294011233 5.8243662705 24.8854643886  
Li 2.4301952339 2.3406013982 26.3239691290  
Li 4.8603038378 6.4712989259 27.7365284816  
Li 4.8606050326 3.5298718472 28.6420593018  
Li 2.4269163921 6.4830384705 22.0794787978  
Li 2.4279969425 3.3280756829 23.4927669773  
Li 4.8578244987 7.1295340606 24.9327083700  
Li 4.8590229212 4.1191697539 25.6529121098  
Li 4.8596468782 0.7885388033 27.1847190736  
Li 2.4312695686 4.8846739279 27.5144771570  
Li 2.4311407558 1.6751457282 29.2443462853  
Li 4.8565564544 6.3649298837 19.9172072032  
Li 4.8554535246 2.1387018203 21.1716670730  
Li 4.8594525170 -0.6977592753 29.8965473549  
Li 7.2849500116 3.9924017690 20.5696004332  
Li 7.2848534256 0.7837720433 22.3024425886  
Li 9.7144997229 4.8795261973 22.6323558745  
Li 9.7151446788 1.5477785398 24.1657538166  
Li 7.2872550963 5.8244684738 24.8854582548  
Li 7.2881223168 2.3405201925 26.3241219482  
Li 9.7182112896 6.4712517660 27.7366619637  
Li 9.7185642584 3.5298398417 28.6420132656  
Li 7.2847853603 6.4830571829 22.0795197123  
Li 7.2858553560 3.3279919064 23.4928637762  
Li 9.7157611372 7.1295660224 24.9327584520  
Li 9.7171433998 4.1191746941 25.6529042425  
Li 9.7177199815 0.7884443057 27.1847150942  
Li 7.2891958060 4.8848489105 27.5144694956  
Li 7.2891071347 1.6750520794 29.2444510481  
Li 9.7144392584 6.3648204987 19.9172506606  
Li 9.7136410202 2.1386645209 21.1716880594  

