&CONTROL
   calculation      = 'relax'
   verbosity        = 'high'
   restart_mode     = 'from_scratch'
   nstep            = 999
   tstress          = .false.
   tprnfor          = .true.
   outdir           = './Li/'
   prefix           = 'Lithium'
   etot_conv_thr    = 1e-05
   forc_conv_thr    = 0.000388
   disk_io          = 'minimal'
   pseudo_dir       = '/work/e89/e89/ba3g18/Repos/Pseudopotentials/Pslibrary'
/
&SYSTEM
   ibrav            = 12
   nbnd             = 171
   tot_charge       = 0.0
   ecutwfc          = 80.0
   ecutrho          = 800
   occupations      = 'smearing'
   degauss          = 0.01
   smearing         = 'cold'
   nspin            = 1
   input_dft        = 'pbe'
   lgcscf           = .true.
   gcscf_mu         = -3.404
   gcscf_conv_thr   = 0.001
   ntyp             = 1
   nat              = 76
   celldm(1)        = 18.360747
   celldm(2)        = 1.1180342461771913
   celldm(3)        = 5.615419
   celldm(4)        = 0.22360674626453153
/
&ELECTRONS
   electron_maxstep = 999
   scf_must_converge = .true.
   conv_thr         = 1e-06
   mixing_mode      = 'local-TF'
   mixing_beta      = 0.2
   diagonalization  = 'david'
   diago_thr_init   = 1e-12
   diago_david_ndim = 4
   diago_full_acc   = .true.
   startingwfc      = 'random'
/
&IONS
   ion_dynamics     = 'bfgs'
   upscale          = 1000000.0
   bfgs_ndim        = 1
/
&CELL
   press_conv_thr   = 0.1
   cell_dofree      = 'all'
/
&FCP
/
&RISM
/
ATOMIC_SPECIES
Li 6.94 Li.pbe-sl-kjpaw_psl.1.0.0.UPF

K_POINTS automatic
7 6 1  0 0 0

ATOMIC_POSITIONS angstrom
Li 0.0097658966 -0.6722162504 34.6530088768  
Li 2.4193080746 7.3452350549 20.3050752220  
Li 2.4195299137 3.7730909441 21.3574414616  
Li 2.4189127178 0.5355405783 22.4026779772  
Li 4.8478241611 7.8896905084 22.5335848448  
Li 4.8481766437 4.2942458842 23.3946057294  
Li 4.8480414417 1.1152054963 24.2382921831  
Li 2.4205656123 8.3380649591 25.0721949709  
Li 2.4232861724 5.0471216786 25.9038456668  
Li 2.4255565248 1.6464435168 26.7454349227  
Li 4.8600107204 8.8510793553 27.5767843570  
Li 4.8627623816 5.5857160724 28.2405084281  
Li 4.8653031438 2.2718310846 29.2027083461  
Li 2.4381686377 9.5883339113 29.6578107333  
Li 2.4389082758 6.1207355915 30.4709865527  
Li 2.4392317120 2.7731701819 31.5109764552  
Li 4.8683755854 10.0496175068 32.2689134409  
Li 4.8679229782 7.0441467210 33.2900464805  
Li 4.8675139556 3.3506603173 33.7793490571  
Li 2.4186898603 9.4543438857 22.2909946932  
Li 2.4188116159 6.1429259677 23.0489318556  
Li 2.4191348976 2.7953550918 24.0889242018  
Li 4.8488996564 9.9156216120 24.9020997933  
Li 4.8507879714 6.6442619663 25.3572009026  
Li 4.8533282558 3.3303799760 26.3194002063  
Li 4.8560808518 0.0650100078 26.9831246262  
Li 2.4324895277 7.2696523013 27.8144758596  
Li 2.4347607186 3.8689759023 28.6560643448  
Li 2.4374811273 0.5780317326 29.4877126896  
Li 4.8680463949 7.8008935838 30.3216164628  
Li 4.8679115198 4.6218464212 31.1653033308  
Li 4.8682630093 1.0264040100 32.0263239201  
Li 2.4391309976 8.3805511165 32.1572305360  
Li 2.4385131977 5.1430006367 33.2024678373  
Li 2.4387333493 1.5708574401 34.2548348657  
Li 4.8482766592 9.5883093115 19.9069011707  
Li 4.8485725147 5.5654327478 20.7805583608  
Li 4.8481642613 1.8719466648 21.2698602368  
Li 4.8678095622 -0.6722150880 34.6530092250  
Li 7.2773523055 7.3452348422 20.3050752586  
Li 7.2775744135 3.7730908117 21.3574413937  
Li 7.2769572604 0.5355409129 22.4026778244  
Li 9.7058688931 7.8896907613 22.5335848661  
Li 9.7062207353 4.2942457060 23.3946056127  
Li 9.7060859349 1.1152055310 24.2382919576  
Li 7.2786101008 8.3380650605 25.0721953860  
Li 7.2813303673 5.0471216980 25.9038456668  
Li 7.2836009385 1.6464438146 26.7454351608  
Li 9.7180548272 8.8510793620 27.5767841593  
Li 9.7208071435 5.5857161392 28.2405082385  
Li 9.7233472506 2.2718307042 29.2027079870  
Li 7.2962129573 9.5883338640 29.6578110680  
Li 7.2969533609 6.1207358102 30.4709870639  
Li 7.2972761197 2.7731700786 31.5109762839  
Li 9.7264200198 10.0496172424 32.2689134590  
Li 9.7259675699 7.0441458413 33.2900451389  
Li 9.7255585589 3.3506609639 33.7793484665  
Li 7.2767343019 9.4543437422 22.2909948759  
Li 7.2768561351 6.1429261032 23.0489318751  
Li 7.2771790325 2.7953551345 24.0889241331  
Li 9.7069440101 9.9156221982 24.9020999369  
Li 9.7088326104 6.6442620776 25.3572008831  
Li 9.7113726762 3.3303799161 26.3194002749  
Li 9.7141250813 0.0650096682 26.9831241571  
Li 7.2905338185 7.2696521512 27.8144763985  
Li 7.2928053577 3.8689762394 28.6560645884  
Li 7.2955255130 0.5780313231 29.4877126896  
Li 9.7260906313 7.8008936507 30.3216160090  
Li 9.7259560629 4.6218456992 31.1653025306  
Li 9.7263074364 1.0264041114 32.0263237992  
Li 7.2971753038 8.3805516409 32.1572309492  
Li 7.2965568973 5.1430005378 33.2024680756  
Li 7.2967785006 1.5708571181 34.2548351524  
Li 9.7063207205 9.5883092101 19.9069012753  
Li 9.7066170686 5.5654328827 20.7805588784  
Li 9.7062084301 1.8719466234 21.2698603201  

