&CONTROL
   calculation      = 'scf'
   verbosity        = 'high'
   restart_mode     = 'from_scratch'
   nstep            = 999
   tstress          = .false.
   tprnfor          = .true.
   outdir           = './Li/'
   prefix           = 'Lithium'
   etot_conv_thr    = 1e-05
   forc_conv_thr    = 0.000388
   disk_io          = 'minimal'
   pseudo_dir       = '/home/mmm1182/Repos/Pseudopotentials/pslibrary'
/
&SYSTEM
   ibrav            = 12
   nbnd             = 99
   tot_charge       = 0.0
   ecutwfc          = 80.0
   ecutrho          = 800
   occupations      = 'smearing'
   degauss          = 0.01
   smearing         = 'cold'
   nspin            = 1
   input_dft        = 'pbe'
   lgcscf           = .true.
   gcscf_mu         = -4.404
   gcscf_conv_thr   = 0.001
   ntyp             = 1
   nat              = 44
   celldm(1)        = 18.360747
   celldm(2)        = 0.8660252146075195
   celldm(3)        = 5.240449
   celldm(4)        = -0.28867519765379973
/
&ELECTRONS
   electron_maxstep = 999
   scf_must_converge = .true.
   conv_thr         = 1e-14
   mixing_mode      = 'local-TF'
   mixing_beta      = 0.2
   diagonalization  = 'david'
   diago_thr_init   = 1e-12
   diago_david_ndim = 4
   diago_full_acc   = .true.
   startingwfc      = 'random'
/
&IONS
   ion_dynamics     = 'bfgs'
   upscale          = 1000000.0
   bfgs_ndim        = 1
/
&CELL
   press_conv_thr   = 0.1
   cell_dofree      = 'all'
/
&FCP
/
&RISM
/
ATOMIC_SPECIES
Li 6.94 Li.pbe-sl-kjpaw_psl.1.0.0.UPF

K_POINTS automatic
7 8 1  0 0 0

ATOMIC_POSITIONS angstrom
Li -2.4284117889 6.6091453729 19.2597943161  
Li 2.4273417323 2.5642402321 31.1416712102  
Li -0.0007318981 4.6251365461 29.5116680395  
Li 2.4284529124 6.5301399772 28.3322630939  
Li 2.4276292763 0.8043318386 27.1722130552  
Li 0.0000480043 2.9485694511 26.3416364625  
Li 2.4295006068 5.0755355852 25.2703535856  
Li -0.0001866611 7.2961372401 24.1397179126  
Li 0.0011620065 1.5941284469 22.8557595429  
Li 2.4301638982 3.6490277347 21.9531687064  
Li 0.0009686218 5.5035425353 21.2492369711  
Li -0.0011417226 1.4776184525 28.9635125235  
Li 2.4278585305 3.5325353735 28.0609178078  
Li 0.0001860985 5.8866657479 26.7769569118  
Li 2.4285448592 8.1072390754 25.6463290230  
Li 2.4289741067 2.1780635070 24.5750371924  
Li 0.0013943307 4.3223345798 23.7444720216  
Li 2.4295912168 6.6526616051 22.5844187772  
Li 2.4297517283 0.5015106499 21.4050084731  
Li 0.0016775401 2.5623937848 19.7750070189  
Li 2.4284103872 6.5736524098 31.6568939896  
Li -0.0009704742 7.6792551161 29.6674350768  
Li 2.4296332219 6.6091451281 19.2597940096  
Li 7.2853867169 2.5642404926 31.1416714221  
Li 4.8573128421 4.6251365727 29.5116681326  
Li 7.2864970685 6.5301397268 28.3322630493  
Li 7.2856736755 0.8043312619 27.1722135613  
Li 4.8580922884 2.9485693441 26.3416366268  
Li 7.2875451982 5.0755356523 25.2703533706  
Li 4.8578578567 7.2961370822 24.1397179097  
Li 4.8592066669 1.5941285689 22.8557593621  
Li 7.2882082451 3.6490274241 21.9531693614  
Li 4.8590133319 5.5035423381 21.2492375539  
Li 4.8569026080 1.4776185395 28.9635127521  
Li 7.2859029845 3.5325349645 28.0609177049  
Li 4.8582305533 5.8866655326 26.7769568024  
Li 7.2865892531 8.1072390813 25.6463291931  
Li 7.2870186948 2.1780633019 24.5750376293  
Li 4.8594385151 4.3223343319 23.7444725163  
Li 7.2876358128 6.6526615677 22.5844187750  
Li 7.2877965490 0.5015104494 21.4050087491  
Li 4.8597229210 2.5623940013 19.7750065817  
Li 7.2864558644 6.5736527212 31.6568938406  
Li 4.8570741595 7.6792555700 29.6674358401  

