52
Lattice="6.870312458648901 0.0 0.0 0.0 12.38563441295323 0.0 0.0 0.0 52.04509018675054" Properties=species:S:1:pos:R:3:forces:R:3 energy=-10638.330620665665 free_energy=-10638.330620665665 pbc="T T T"
Li      -0.00000000       7.93513119      31.07552731       0.00000000      -0.00069291       0.00002057
Li      -0.00000000      10.48955871      29.24709533       0.00000000      -0.00078419      -0.00041215
Li      -0.00000000       2.94708580      29.93298198       0.00000000      -0.00045406      -0.00222015
Li      -0.00000000       5.72700590      28.17361794       0.00000000       0.00005605       0.00037924
Li      -0.00000000       8.56768911      26.29903257       0.00000000      -0.00044197      -0.00123619
Li      -0.00000000      11.40709031      24.48079133       0.00000000       0.00011416       0.00039004
Li      -0.00000000       0.95053796      27.22854325       0.00000000      -0.00058955       0.00068186
Li      -0.00000000       3.83182196      25.17450327       0.00000000       0.00069831       0.00022009
Li      -0.00000000       6.66565890      23.32946024       0.00000000      -0.00037692       0.00121510
Li      -0.00000000       9.40904543      21.48247911       0.00000000       0.00083844      -0.00032139
Li      -0.00000000       1.86851476      22.41970927       0.00000000       0.00162339      -0.00005296
Li      -0.00000000       4.21951026      20.43417454       0.00000000       0.00024091       0.00065229
Li      -0.00000000       0.83103025      32.04509122       0.00000000       0.00001517      -0.00013755
Li       1.71757811       8.10183520      28.71564368       0.00000000       0.00037358      -0.00121485
Li       1.71757811      10.93567489      26.87060135       0.00000000      -0.00069805      -0.00022086
Li       1.71757811       3.36040448      27.56431741      -0.00000000      -0.00011878      -0.00038952
Li       1.71757811       6.19981118      25.74607754       0.00000026       0.00044146       0.00123490
Li       1.71757811       9.04048134      23.87149286      -0.00000000      -0.00005168      -0.00037898
Li       1.71757811      11.82038701      22.11213088       0.00000000       0.00046306       0.00221475
Li       1.71757811       1.43132586      24.81655312       0.00000026       0.00058827      -0.00068083
Li       1.71757811       4.27793059      22.79800379       0.00000000       0.00078547       0.00041652
Li       1.71757811       6.83234505      20.96957112       0.00000026       0.00068957      -0.00002005
Li       1.71757811      10.54795843      31.61091977      -0.00000000      -0.00024143      -0.00065332
Li       1.71757811       1.55078891      19.99999965       0.00000000      -0.00001234       0.00014218
Li       1.71757811       5.35842600      30.56262826       0.00000000      -0.00083355       0.00032216
Li       1.71757811       0.51333807      29.62538504      -0.00000026      -0.00163214       0.00004911
Li       3.43515623       7.93513119      31.07552662       0.00000000      -0.00069317       0.00002057
Li       3.43515623      10.48955871      29.24709464       0.00000000      -0.00078444      -0.00041215
Li       3.43515623       2.94708580      29.93298198       0.00000000      -0.00045431      -0.00222040
Li       3.43515623       5.72700659      28.17361794       0.00000000       0.00005605       0.00037924
Li       3.43515623       8.56768911      26.29903257       0.00000000      -0.00044197      -0.00123619
Li       3.43515623      11.40709031      24.48079202       0.00000000       0.00011416       0.00038978
Li       3.43515623       0.95053727      27.22854325       0.00000000      -0.00058930       0.00068160
Li       3.43515623       3.83182196      25.17450327       0.00000000       0.00069805       0.00021983
Li       3.43515623       6.66565890      23.32946024       0.00000000      -0.00037718       0.00121485
Li       3.43515623       9.40904543      21.48247842       0.00000000       0.00083844      -0.00032139
Li       3.43515623       1.86851476      22.41970927       0.00000000       0.00162365      -0.00005296
Li       3.43515623       4.21951026      20.43417454       0.00000000       0.00024091       0.00065255
Li       3.43515623       0.83103025      32.04509191       0.00000000       0.00001517      -0.00013730
Li       5.15273434       8.10183520      28.71564368      -0.00000000       0.00037358      -0.00121485
Li       5.15273434      10.93567489      26.87060135      -0.00000000      -0.00069805      -0.00022086
Li       5.15273434       3.36040448      27.56431741       0.00000000      -0.00011878      -0.00038952
Li       5.15273434       6.19981118      25.74607754      -0.00000026       0.00044146       0.00123490
Li       5.15273434       9.04048134      23.87149286       0.00000000      -0.00005168      -0.00037898
Li       5.15273434      11.82038701      22.11213088      -0.00000000       0.00046306       0.00221475
Li       5.15273434       1.43132586      24.81655312      -0.00000026       0.00058827      -0.00068083
Li       5.15273434       4.27793059      22.79800379      -0.00000000       0.00078547       0.00041652
Li       5.15273434       6.83234505      20.96957112      -0.00000026       0.00068957      -0.00002005
Li       5.15273434      10.54795843      31.61091977       0.00000000      -0.00024143      -0.00065332
Li       5.15273434       1.55078891      19.99999965      -0.00000000      -0.00001234       0.00014218
Li       5.15273434       5.35842600      30.56262826      -0.00000000      -0.00083355       0.00032216
Li       5.15273434       0.51333807      29.62538504       0.00000026      -0.00163214       0.00004911
