56
Lattice="6.870312458648901 0.0 0.0 0.0 12.38563441295323 0.0 0.0 0.0 52.04509018675054" Properties=species:S:1:pos:R:3:initial_magmoms:R:1 pbc="T T F"
Li      -0.00000000       7.93513119      31.07552731       0.00000000
Li      -0.00000000      10.48955871      29.24709533       0.00000000
Li      -0.00000000       2.94708580      29.93298198       0.00000000
Li      -0.00000000       5.72700590      28.17361794       0.00000000
Li      -0.00000000       8.56768911      26.29903257       0.00000000
Li      -0.00000000      11.40709031      24.48079133       0.00000000
Li      -0.00000000       0.95053796      27.22854325       0.00000000
Li      -0.00000000       3.83182196      25.17450327       0.00000000
Li      -0.00000000       6.66565890      23.32946024       0.00000000
Li      -0.00000000       9.40904543      21.48247911       0.00000000
Li      -0.00000000       1.86851476      22.41970927       0.00000000
Li      -0.00000000       4.21951026      20.43417454       0.00000000
Li      -0.00000000       0.83103025      32.04509122       0.00000000
Li       1.71757811       8.10183520      28.71564368       0.00000000
Li       1.71757811      10.93567489      26.87060135       0.00000000
Li       1.71757811       3.36040448      27.56431741       0.00000000
Li       1.71757811       6.19981118      25.74607754       0.00000000
Li       1.71757811       9.04048134      23.87149286       0.00000000
Li       1.71757811      11.82038701      22.11213088       0.00000000
Li       1.71757811       1.43132586      24.81655312       0.00000000
Li       1.71757811       4.27793059      22.79800379       0.00000000
Li       1.71757811       6.83234505      20.96957112       0.00000000
Li       1.71757811      10.54795843      31.61091977       0.00000000
Li       1.71757811       1.55078891      19.99999965       0.00000000
Li       1.71757811       5.35842600      30.56262826       0.00000000
Li       1.71757811       0.51333807      29.62538504       0.00000000
Li       3.43515623       7.93513119      31.07552662       0.00000000
Li       3.43515623      10.48955871      29.24709464       0.00000000
Li       3.43515623       2.94708580      29.93298198       0.00000000
Li       3.43515623       5.72700659      28.17361794       0.00000000
Li       3.43515623       8.56768911      26.29903257       0.00000000
Li       3.43515623      11.40709031      24.48079202       0.00000000
Li       3.43515623       0.95053727      27.22854325       0.00000000
Li       3.43515623       3.83182196      25.17450327       0.00000000
Li       3.43515623       6.66565890      23.32946024       0.00000000
Li       3.43515623       9.40904543      21.48247842       0.00000000
Li       3.43515623       1.86851476      22.41970927       0.00000000
Li       3.43515623       4.21951026      20.43417454       0.00000000
Li       3.43515623       0.83103025      32.04509191       0.00000000
Li       5.15273434       8.10183520      28.71564368       0.00000000
Li       5.15273434      10.93567489      26.87060135       0.00000000
Li       5.15273434       3.36040448      27.56431741       0.00000000
Li       5.15273434       6.19981118      25.74607754       0.00000000
Li       5.15273434       9.04048134      23.87149286       0.00000000
Li       5.15273434      11.82038701      22.11213088       0.00000000
Li       5.15273434       1.43132586      24.81655312       0.00000000
Li       5.15273434       4.27793059      22.79800379       0.00000000
Li       5.15273434       6.83234505      20.96957112       0.00000000
Li       5.15273434      10.54795843      31.61091977       0.00000000
Li       5.15273434       1.55078891      19.99999965       0.00000000
Li       5.15273434       5.35842600      30.56262826       0.00000000
Li       5.15273434       0.51333807      29.62538504       0.00000000
C        3.43515623       7.02384746      34.38593377       0.00000000
O        3.43515623       8.32384746      34.38593377       0.00000000
O        4.56515623       6.37384746      34.38593377       0.00000000
O        2.30515623       6.37384746      34.38593377       0.00000000
