65
Lattice="11.899729595 0.0 0.0 -3.966572565 11.2191721598 0.0 0.0 0.0 47.0891046546" Properties=species:S:1:pos:R:3:initial_magmoms:R:1 pbc="T T F"
Li       0.99161527       1.40240739      19.97955306       0.00000000
Li       1.98328827       2.80479343      22.33499542       0.00000000
Li       0.99167627       1.40238867      24.75407035       0.00000000
Li       1.98328828       2.80479345      27.10946361       0.00000000
Li       0.00003396       4.20722504      19.97966804       0.00000000
Li       0.99164435       5.60958639      22.33511702       0.00000000
Li      -0.00005165       4.20711028      24.75411137       0.00000000
Li       0.99164433       5.60958635      27.10941621       0.00000000
Li       3.96654266       1.40236143      19.97966810       0.00000000
Li       4.95822067       2.80479342      22.33503835       0.00000000
Li       3.96662826       1.40247616      24.75411139       0.00000000
Li       4.95822068       2.80479344      27.10951693       0.00000000
Li       2.97496135       4.20717908      19.97955303       0.00000000
Li       3.96657675       5.60958638      22.33500870       0.00000000
Li       2.97490034       4.20719777      24.75407032       0.00000000
Li       3.96657673       5.60958633      27.10942874       0.00000000
Li      -0.99167101       7.01199347      19.97955306       0.00000000
Li       0.00000199       8.41437951      22.33499542       0.00000000
Li      -0.99161001       7.01197475      24.75407035       0.00000000
Li       0.00000200       8.41437953      27.10946361       0.00000000
Li      -1.98325232       9.81681112      19.97966804       0.00000000
Li      -0.99164193      11.21917247      22.33511702       0.00000000
Li      -1.98333793       9.81669636      24.75411137       0.00000000
Li      -0.99164195      11.21917243      27.10941621       0.00000000
Li       1.98325638       7.01194751      19.97966810       0.00000000
Li       2.97493439       8.41437950      22.33503835       0.00000000
Li       1.98334198       7.01206224      24.75411139       0.00000000
Li       2.97493440       8.41437952      27.10951693       0.00000000
Li       0.99167507       9.81676516      19.97955303       0.00000000
Li       1.98329047      11.21917246      22.33500870       0.00000000
Li       0.99161405       9.81678385      24.75407032       0.00000000
Li       1.98329045      11.21917241      27.10942874       0.00000000
Li       6.94148007       1.40240739      19.97955306       0.00000000
Li       7.93315307       2.80479343      22.33499542       0.00000000
Li       6.94154107       1.40238867      24.75407035       0.00000000
Li       7.93315308       2.80479345      27.10946361       0.00000000
Li       5.94989876       4.20722504      19.97966804       0.00000000
Li       6.94150915       5.60958639      22.33511702       0.00000000
Li       5.94981315       4.20711028      24.75411137       0.00000000
Li       6.94150913       5.60958635      27.10941621       0.00000000
Li       9.91640746       1.40236143      19.97966810       0.00000000
Li      10.90808547       2.80479342      22.33503835       0.00000000
Li       9.91649306       1.40247616      24.75411139       0.00000000
Li      10.90808548       2.80479344      27.10951693       0.00000000
Li       8.92482615       4.20717908      19.97955303       0.00000000
Li       9.91644155       5.60958638      22.33500870       0.00000000
Li       8.92476513       4.20719777      24.75407032       0.00000000
Li       9.91644153       5.60958633      27.10942874       0.00000000
Li       4.95819378       7.01199347      19.97955306       0.00000000
Li       5.94986679       8.41437951      22.33499542       0.00000000
Li       4.95825479       7.01197475      24.75407035       0.00000000
Li       5.94986680       8.41437953      27.10946361       0.00000000
Li       3.96661247       9.81681112      19.97966804       0.00000000
Li       4.95822286      11.21917247      22.33511702       0.00000000
Li       3.96652687       9.81669636      24.75411137       0.00000000
Li       4.95822284      11.21917243      27.10941621       0.00000000
Li       7.93312118       7.01194751      19.97966810       0.00000000
Li       8.92479919       8.41437950      22.33503835       0.00000000
Li       7.93320677       7.01206224      24.75411139       0.00000000
Li       8.92479920       8.41437952      27.10951693       0.00000000
Li       6.94153987       9.81676516      19.97955303       0.00000000
Li       7.93315526      11.21917246      22.33500870       0.00000000
Li       6.94147885       9.81678385      24.75407032       0.00000000
Li       7.93315525      11.21917241      27.10942874       0.00000000
F        2.31383645       4.67465538      27.10943619       1.00000000
