&CONTROL
   calculation      = 'relax'
   verbosity        = 'high'
   restart_mode     = 'from_scratch'
   nstep            = 999
   tstress          = .false.
   tprnfor          = .true.
   outdir           = './Li/'
   prefix           = 'Lithium'
   etot_conv_thr    = 1e-05
   forc_conv_thr    = 0.000388
   disk_io          = 'minimal'
   pseudo_dir       = '/work/e89/e89/ba3g18/Repos/Pseudopotentials/Pslibrary'
/
&SYSTEM
   ibrav            = 12
   nbnd             = 153
   tot_charge       = 0.0
   ecutwfc          = 80.0
   ecutrho          = 800
   occupations      = 'smearing'
   degauss          = 0.01
   smearing         = 'cold'
   nspin            = 1
   input_dft        = 'pbe'
   lgcscf           = .true.
   gcscf_mu         = -2.404
   gcscf_conv_thr   = 0.001
   ntyp             = 1
   nat              = 68
   celldm(1)        = 18.360747
   celldm(2)        = 1.0606597768257267
   celldm(3)        = 5.518976
   celldm(4)        = -0.23570234816312513
/
&ELECTRONS
   electron_maxstep = 999
   scf_must_converge = .true.
   conv_thr         = 1e-06
   mixing_mode      = 'local-TF'
   mixing_beta      = 0.2
   diagonalization  = 'david'
   diago_thr_init   = 1e-12
   diago_david_ndim = 4
   diago_full_acc   = .true.
   startingwfc      = 'random'
/
&IONS
   ion_dynamics     = 'bfgs'
   upscale          = 1000000.0
   bfgs_ndim        = 1
/
&CELL
   press_conv_thr   = 0.1
   cell_dofree      = 'all'
/
&FCP
/
&RISM
/
ATOMIC_SPECIES
Li 6.94 Li.pbe-sl-kjpaw_psl.1.0.0.UPF

K_POINTS automatic
7 7 1  0 0 0

ATOMIC_POSITIONS angstrom
Li -0.0037395662 0.3938973377 19.9722568061  
Li 0.0024213766 5.8577191577 33.3042522218  
Li 2.4311526866 7.6715226571 31.6625458514  
Li 2.4325537655 1.8741476426 32.0032738169  
Li 0.0026208767 3.5328893832 30.8243617363  
Li 2.4302371536 5.3645945283 29.0814766882  
Li 2.4283971801 8.8353629648 25.7347797736  
Li 0.0023446541 9.4020376279 30.0678293081  
Li 0.0014520967 1.1822730686 28.2665569800  
Li 2.4283005834 2.9852395326 26.4618629318  
Li -0.0017217995 4.6849603738 24.9369600282  
Li 2.4273507133 6.4614786823 23.1541108015  
Li 0.0004695462 7.0422491584 27.5026042460  
Li 2.4273207401 0.5228835372 24.3278456590  
Li -0.0032878558 2.3709406563 22.4586127845  
Li 2.4271224964 3.8413238752 20.6002618295  
Li -0.0024010295 8.2559852609 21.6835715088  
Li 0.0032256664 0.5747261073 31.1642668054  
Li 0.0016717266 6.4992107926 30.4688204367  
Li 2.4307425838 8.2757814213 28.6857883053  
Li 2.4307231774 2.4226874408 29.2950954225  
Li 0.0006075772 4.1253515554 27.8878953488  
Li 2.4285479265 5.9184820297 26.1200741043  
Li 2.4263921599 9.4277991606 22.7985775975  
Li 0.0007124111 9.9754753667 27.1608420201  
Li -0.0014712320 1.7633276394 25.3561419475  
Li 2.4266802760 3.5587328504 23.5550524969  
Li -0.0021181372 5.2892468595 21.9603795999  
Li 2.4266088501 7.1029997664 20.3187709190  
Li -0.0012162224 7.5961398440 24.5413161724  
Li 2.4254943588 1.0714894174 21.6197464118  
Li 0.0041436190 2.5517504324 33.6508217942  
Li 2.4314363003 4.7048228959 31.9393576607  
Li 0.0018798720 9.1194051672 33.0227591359  
Li 4.8537559713 0.3938216892 19.9722738027  
Li 4.8605199680 5.8576747135 33.3042969438  
Li 7.2892649281 7.6715261374 31.6625431360  
Li 7.2906015567 1.8741845036 32.0034672088  
Li 4.8606534804 3.5328925056 30.8243566555  
Li 7.2882469772 5.3645945002 29.0814270801  
Li 7.2864812843 8.8353723678 25.7347939660  
Li 4.8603877704 9.4020626944 30.0677435580  
Li 4.8595209182 1.1822724936 28.2665822024  
Li 7.2863721485 2.9852571384 26.4619179349  
Li 4.8563110782 4.6849621797 24.9369400288  
Li 7.2853680474 6.4614367452 23.1540443436  
Li 4.8585318899 7.0422560586 27.5026662220  
Li 7.2853481062 0.5229263975 24.3275975133  
Li 4.8548458033 2.3709129359 22.4586174246  
Li 7.2852134316 3.8415377354 20.6003523091  
Li 4.8556262261 8.2559289551 21.6836715738  
Li 4.8613172654 0.5747208472 31.1642732622  
Li 4.8597361028 6.4992555989 30.4688892645  
Li 7.2888016777 8.2757836432 28.6857858167  
Li 7.2887800475 2.4226901212 29.2951948682  
Li 4.8586405805 4.1253507293 27.8878847371  
Li 7.2865862393 5.9184821099 26.1200354155  
Li 7.2844658745 9.4277989846 22.7985761709  
Li 4.8587438861 9.9754847135 27.1607275911  
Li 4.8565818327 1.7633263461 25.3561528951  
Li 7.2847256020 3.5587291684 23.5550833109  
Li 4.8558327435 5.2892145589 21.9603666184  
Li 7.2845863662 7.1031045875 20.3187284270  
Li 4.8568607024 7.5961495663 24.5413796091  
Li 7.2835320495 1.0714231142 21.6193131547  
Li 4.8619365373 2.5517127084 33.6508091666  
Li 7.2894683208 4.7048429544 31.9392896116  
Li 4.8599087246 9.1192843445 33.0226574407  

