&CONTROL
   calculation      = 'scf'
   verbosity        = 'high'
   restart_mode     = 'from_scratch'
   nstep            = 999
   tstress          = .false.
   tprnfor          = .true.
   outdir           = './Li/'
   prefix           = 'Lithium'
   etot_conv_thr    = 1e-05
   forc_conv_thr    = 0.000388
   disk_io          = 'minimal'
   pseudo_dir       = '/work/e89/e89/ba3g18/Repos/Pseudopotentials/Pslibrary'
/
&SYSTEM
   ibrav            = 12
   nbnd             = 171
   tot_charge       = 0.0
   ecutwfc          = 80.0
   ecutrho          = 800
   occupations      = 'smearing'
   degauss          = 0.01
   smearing         = 'cold'
   nspin            = 1
   input_dft        = 'pbe'
   lgcscf           = .true.
   gcscf_mu         = -1.404
   gcscf_conv_thr   = 0.001
   ntyp             = 1
   nat              = 76
   celldm(1)        = 18.360747
   celldm(2)        = 1.1180342461771913
   celldm(3)        = 5.615419
   celldm(4)        = 0.22360674626453153
/
&ELECTRONS
   electron_maxstep = 999
   scf_must_converge = .true.
   conv_thr         = 1e-14
   mixing_mode      = 'local-TF'
   mixing_beta      = 0.2
   diagonalization  = 'david'
   diago_thr_init   = 1e-12
   diago_david_ndim = 4
   diago_full_acc   = .true.
   startingwfc      = 'random'
/
&IONS
   ion_dynamics     = 'bfgs'
   upscale          = 1000000.0
   bfgs_ndim        = 1
/
&CELL
   press_conv_thr   = 0.1
   cell_dofree      = 'all'
/
&FCP
/
&RISM
/
ATOMIC_SPECIES
Li 6.94 Li.pbe-sl-kjpaw_psl.1.0.0.UPF

K_POINTS automatic
7 6 1  0 0 0

ATOMIC_POSITIONS angstrom
Li 0.0102077239 -0.0543680853 34.4410090392  
Li 2.4189661571 7.1955161368 20.2897791703  
Li 2.4187873815 3.9069358438 21.2070892493  
Li 2.4186045821 0.6248093168 22.0687321942  
Li 4.8473123795 7.7806772675 22.7839352813  
Li 4.8472238524 4.4066219039 23.4043023162  
Li 4.8473729627 1.1261643101 24.2140465889  
Li 2.4201639688 8.3661118216 25.1227144530  
Li 2.4229821553 5.0324521499 25.8936468504  
Li 2.4263013583 1.6883813774 26.6760271719  
Li 4.8592662966 8.8810124311 27.5111508222  
Li 4.8631822658 5.5569392090 28.3098175626  
Li 4.8658590571 2.2955204801 29.0589738802  
Li 2.4385272793 9.5038202276 29.8198646837  
Li 2.4399064768 6.0965978181 30.6150090914  
Li 2.4397622088 2.7640621964 31.4486580301  
Li 4.8685400655 10.0611645206 32.2940635306  
Li 4.8683096899 6.7513114886 33.2243882657  
Li 4.8681808921 3.2838868273 33.8567589348  
Li 2.4185731967 9.4437663329 22.2596287769  
Li 2.4182719968 6.1507167424 23.1122227340  
Li 2.4181306920 2.8118491109 23.9434635340  
Li 4.8484068725 10.0063208851 24.7385496537  
Li 4.8503610459 6.6285505302 25.5110969060  
Li 4.8531443092 3.3531456485 26.2506453802  
Li 4.8567580980 0.0457373083 27.0488831150  
Li 2.4317392339 7.2311605563 27.8832658625  
Li 2.4354034516 3.8803999455 28.6648269302  
Li 2.4379006286 0.5571577021 29.4377656263  
Li 4.8685691371 7.7831033034 30.3454151805  
Li 4.8688359682 4.5117153713 31.1658201500  
Li 4.8687369537 1.1374193012 31.7756157387  
Li 2.4394384649 8.2855715442 32.4838390118  
Li 2.4391764942 5.0012411245 33.3499367497  
Li 2.4389557730 1.7225348835 34.2664221848  
Li 4.8477724791 8.9757788813 20.1126332269  
Li 4.8478305161 5.6308658128 20.7069495010  
Li 4.8477655675 2.1567023658 21.3411778848  
Li 4.8682200265 -0.0544397600 34.4409828926  
Li 7.2770512689 7.1955361933 20.2897995373  
Li 7.2767849897 3.9069194176 21.2070867370  
Li 7.2766432152 0.6248506824 22.0687539792  
Li 9.7053406565 7.7806752290 22.7839012291  
Li 9.7052779242 4.4066549045 23.4043363489  
Li 9.7054316167 1.1261369432 24.2140937255  
Li 7.2781531272 8.3661184891 25.1226678338  
Li 7.2810231206 5.0324883985 25.8936122592  
Li 7.2843200947 1.6883601960 26.6759703509  
Li 9.7173251471 8.8810502457 27.5111940466  
Li 9.7211937469 5.5569147855 28.3098570250  
Li 9.7239511039 2.2955860149 29.0589827884  
Li 7.2966686738 9.5038387999 29.8198508232  
Li 7.2979273210 6.0965672451 30.6149600773  
Li 7.2978225281 2.7640716459 31.4486583604  
Li 9.7265493823 10.0612352841 32.2940329717  
Li 9.7263542151 6.7513578123 33.2244869919  
Li 9.7262521846 3.2838178410 33.8568216570  
Li 7.2765888914 9.4438383415 22.2595391886  
Li 7.2763043526 6.1507149565 23.1122026719  
Li 7.2761673422 2.8118594489 23.9434828941  
Li 9.7064391254 10.0062802546 24.7385914581  
Li 9.7084691293 6.6286054368 25.5110927012  
Li 9.7111443594 3.3531008926 26.2506465293  
Li 9.7147751542 0.0457676167 27.0489293533  
Li 7.2897623234 7.2311853325 27.8832398903  
Li 7.2933927604 3.8803514647 28.6647859633  
Li 7.2959454137 0.5572119835 29.4376862214  
Li 9.7265779358 7.7830755771 30.3454717902  
Li 9.7268660665 4.5118292168 31.1658980050  
Li 9.7268742428 1.1374015185 31.7756243460  
Li 7.2975371448 8.2855463751 32.4838011082  
Li 7.2973392816 5.0012117965 33.3499864948  
Li 7.2969308373 1.7225482611 34.2665178812  
Li 9.7058430633 8.9758687800 20.1126493206  
Li 9.7058795831 5.6308493134 20.7069739498  
Li 9.7058150126 2.1566852479 21.3412433802  

