&CONTROL
   calculation      = 'relax'
   verbosity        = 'high'
   restart_mode     = 'from_scratch'
   nstep            = 999
   tstress          = .false.
   tprnfor          = .true.
   outdir           = './Li/'
   prefix           = 'Lithium'
   etot_conv_thr    = 1e-05
   forc_conv_thr    = 0.000388
   disk_io          = 'minimal'
   pseudo_dir       = '/work/e89/e89/ba3g18/Repos/Pseudopotentials/Pslibrary'
/
&SYSTEM
   ibrav            = 4
   nbnd             = 108
   tot_charge       = 0.0
   ecutwfc          = 80.0
   ecutrho          = 800
   occupations      = 'smearing'
   degauss          = 0.01
   smearing         = 'cold'
   nspin            = 1
   input_dft        = 'pbe'
   lgcscf           = .true.
   gcscf_mu         = -2.904
   gcscf_conv_thr   = 0.001
   ntyp             = 1
   nat              = 48
   celldm(1)        = 18.360747
   celldm(3)        = 5.270332
/
&ELECTRONS
   electron_maxstep = 999
   scf_must_converge = .true.
   conv_thr         = 1e-06
   mixing_mode      = 'local-TF'
   mixing_beta      = 0.2
   diagonalization  = 'david'
   diago_thr_init   = 1e-12
   diago_david_ndim = 4
   diago_full_acc   = .true.
   startingwfc      = 'random'
/
&IONS
   ion_dynamics     = 'bfgs'
   upscale          = 1000000.0
   bfgs_ndim        = 1
/
&CELL
   press_conv_thr   = 0.1
   cell_dofree      = 'all'
/
&FCP
/
&RISM
/
ATOMIC_SPECIES
Li 6.94 Li.pbe-sl-kjpaw_psl.1.0.0.UPF

K_POINTS automatic
7 7 1  0 0 0

ATOMIC_POSITIONS angstrom
Li -0.0000000100 0.0000034815 25.1425685434  
Li 2.4290236003 1.4024514785 21.3375114051  
Li 4.8580444100 2.8048307736 23.0152864934  
Li 0.0000000100 0.0000444847 22.1280860700  
Li 2.4290235624 1.4024167767 24.1655624172  
Li 4.8580445000 2.8048491269 19.9573657752  
Li 0.0000000000 -0.0000651193 31.2496427670  
Li 2.4290215188 1.4023720303 27.0414630330  
Li 4.8580444100 2.8047459819 29.0789177361  
Li -0.0000000100 -0.0000410580 28.1917241811  
Li 2.4290256850 1.4023519190 29.8695202230  
Li 4.8580444200 2.8047830825 26.0644385347  
Li 2.4290210283 4.2071967647 25.1425671783  
Li 4.8580443900 5.6096322307 21.3375115156  
Li 7.2870666591 7.0120215013 23.0152898352  
Li 2.4290191881 4.2072405791 22.1280896634  
Li 4.8580444100 5.6096055942 24.1655540419  
Li 7.2870483291 7.0120478262 19.9573703649  
Li 2.4290154625 4.2071572176 31.2496427262  
Li 4.8580444000 5.6095659783 27.0414585241  
Li 7.2870636907 7.0119409165 29.0789265562  
Li 2.4290191062 4.2071567655 28.1917212393  
Li 4.8580444000 5.6095335131 29.8695020710  
Li 7.2870655536 7.0119761482 26.0644445734  
Li 4.8580444000 -0.0000014000 25.1425612773  
Li 7.2870652197 1.4024514585 21.3375115551  
Li 9.7160888200 2.8048279201 23.0152911679  
Li 4.8580443900 0.0000436056 22.1280786280  
Li 7.2870652576 1.4024167767 24.1655624972  
Li 9.7160887400 2.8048288661 19.9573721242  
Li 4.8580444000 -0.0000756523 31.2496384895  
Li 7.2870673012 1.4023720303 27.0414630830  
Li 9.7160888300 2.8047417605 29.0789287839  
Li 4.8580444000 -0.0000449484 28.1917193695  
Li 7.2870631350 1.4023519090 29.8695202630  
Li 9.7160888200 2.8047839248 26.0644486625  
Li 7.2870677818 4.2071967747 25.1425671783  
Li 9.7160888400 5.6096385562 21.3374819401  
Li 12.1451109909 7.0120215113 23.0152898452  
Li 7.2870696219 4.2072405991 22.1280896734  
Li 9.7160888300 5.6096032506 24.1655371818  
Li 12.1451293209 7.0120479362 19.9573703749  
Li 7.2870733475 4.2071572276 31.2496427162  
Li 9.7160888300 5.6095662666 27.0414397551  
Li 12.1451139594 7.0119409165 29.0789265562  
Li 7.2870697138 4.2071567655 28.1917212293  
Li 9.7160888300 5.6095332914 29.8694881850  
Li 12.1451121064 7.0119761582 26.0644445734  

